114
Coordinates from ORCA-job 01_xtb_cit_react E -175.328896733190
  C          16.45614796819706    -11.12491116874034     12.44941960141881
  C          15.26995273735807    -11.36153500946205     13.33186544359819
  C          14.14564813063475    -11.88141424139107     12.81617641285319
  C          13.97438899928817    -11.96890156435026     11.38013821018044
  C          14.86910071952784    -11.46759688107220     10.53382149363213
  C          16.11128987764780    -10.75804263877397     10.99046034119759
  C          13.07004998660994    -12.49057954143266     13.65501981369107
  O          13.13526021154140    -12.42914221859811     14.90160818939185
  O          12.18029518269237    -13.12452506554537     13.01981573913376
  O          15.93956022119157     -9.38077649312293     10.76880525443490
  O          17.25172802257994    -12.34154659373159     12.49110102897534
  C          16.60331833962360    -13.51356287328655     12.15301408251710
  C          16.51292484098836    -13.84141202268100     10.68412046946838
  O          17.34546026274648    -13.31532080797006      9.91961202573305
  O          15.60876788906911    -14.63415799482339     10.30362000635345
  C          16.14117511674108    -14.34589308359090     13.07993562169096
  H          17.12773486005705    -10.35837286930662     12.84896401889201
  H          15.40229461276260    -11.27357585530523     14.39927162528702
  H          13.07023287630293    -12.43794500922344     11.02199646614958
  H          14.69582573116210    -11.49321735459712      9.47117520543128
  H          16.95873087465917    -11.09801723228246     10.37828217701358
  H          16.86296867760283     -8.83135195439079     11.05634169323008
  H          15.69122436819350    -15.28090741995273     12.79757241456450
  H          16.20449449476549    -14.11309839496482     14.12893556858157
  O          13.09371197061514    -15.38563778736336     11.51938173483613
  H          13.95312044123228    -15.16132373084536     11.13154693494188
  H          12.79132787342789    -14.57263359854441     11.95057259822577
  C          12.78499968784459    -13.90900101269694      5.22400138640019
  C          13.42846440327544    -12.54850002990441      5.48003140584095
  N          14.79183468487484    -12.58756735153071      5.97366682902576
  C          15.19875699567406    -12.98322650900168      7.20553450019720
  N          14.48110599393938    -13.78757899718972      7.96674659642741
  N          16.39183391693478    -12.59496055102438      7.60533729639166
  H          13.45374455108178    -14.68227861822943      4.84595155732139
  H          11.98778946210688    -13.78162877283469      4.49378423536255
  H          12.32230839101130    -14.30182881591466      6.12804842475177
  H          13.46755988490863    -11.99592621409789      4.53952057711280
  H          12.78834217211246    -11.98766625970117      6.17361291523826
  H          15.39539212546120    -11.88466898152775      5.57410274828796
  H          14.87884931931254    -14.11443679802100      8.86908786987072
  H          13.68551408012530    -14.28185623729234      7.60963148198189
  H          16.78478899697237    -12.93450718394780      8.52727848238571
  H          16.79723241541518    -11.75449053140538      7.22863139914868
  C           8.41299917532646    -16.81300448205968     15.23300078547670
  C           9.86262887728778    -17.16129063019257     15.59359634646234
  N          10.57954917697632    -16.07735655940136     16.22841484375840
  C          10.98567361939293    -14.96221082323467     15.55214366778941
  N          10.80124004260405    -14.84269624105966     14.25892610318424
  N          11.53439712853436    -13.95811340976515     16.21359203211567
  H           7.73652829668845    -17.00158109038311     16.06662225717350
  H           8.08128371549684    -17.42719322764320     14.39947396532506
  H           8.33523112409931    -15.76925774294833     14.94241513289158
  H           9.89025982449596    -18.01777422923026     16.26992628143249
  H          10.41350255786367    -17.44203583224064     14.69056956513252
  H          10.51791328565615    -16.00442791701830     17.23081939139793
  H          11.35351744019603    -14.04962059428136     13.73354411303230
  H          10.49990368661272    -15.62812642315383     13.71158524207748
  H          12.16387295908357    -13.24519338963285     15.65482563840081
  H          11.73541140227634    -14.07335782440381     17.19216090684687
  C          13.99800072816905     -9.21999975455165      7.72499923563543
  O          15.18829017204357     -9.90596763166980      8.00688372597410
  C          14.27375295121642     -7.78943312503156      7.25780317991015
  H          13.32968098905702     -9.17459476008737      8.58487727502552
  H          13.49855068415508     -9.78378487516500      6.92709371463989
  H          15.56115152314551     -9.53709529793730      8.83552171620814
  H          14.81448816722301     -7.25553378103155      8.03562031706008
  H          14.88788929963231     -7.79521432367201      6.35997122073165
  H          13.34128130165412     -7.26987687619519      7.05000082557703
  C          14.51800129436689     -6.67000016710555     12.63299854080223
  S          13.92004314637378     -8.36863379727057     12.91587267062618
  H          14.32436405054329     -6.42759625878472     11.58808643149122
  H          15.58356575103060     -6.62954409296574     12.83435488953577
  H          13.97302675111457     -6.00286880732906     13.29251146975567
  H          14.75128626913048     -8.89457379299056     11.99543869726713
  C          20.97199979076276     -6.01900044997698     10.96399943897584
  C          20.06234855601164     -7.04544387193341     11.64227125735965
  C          18.76445030471544     -7.45511433713626     10.88885146327453
  O          18.01751369260159     -8.22254060278536     11.57981400226609
  O          18.54806533394286     -7.07395576022189      9.74468638773653
  H          20.58678002071094     -5.00025871116793     11.00727531277998
  H          21.08428168202113     -6.28629497576850      9.91515674678269
  H          21.95549161858030     -6.02946029573145     11.43382550959357
  H          20.61873563090399     -7.98081571838483     11.75356045711941
  H          19.77365755665981     -6.71213118352141     12.64284684791013
  C          19.31299913387546    -20.52199858073608      7.17500075951471
  C          18.30156476617627    -19.46062047865021      7.51246307309236
  C          17.14890549984620    -19.32779344303095      6.74576719578603
  C          18.48766152466319    -18.57811890818963      8.56742785146345
  C          16.21623838487601    -18.34954546682008      7.01945572351285
  C          17.55932547448005    -17.59262177249290      8.85413810028153
  C          16.40988908994303    -17.46497079783129      8.08125237902864
  O          15.47096441544030    -16.52325109140053      8.30195488673296
  H          19.76122795021192    -20.30781452480806      6.20478510048112
  H          18.83962685009334    -21.50141207397439      7.11867578085867
  H          20.10264811602153    -20.55682335557191      7.92132344988714
  H          16.98158873623001    -20.00435478174986      5.91834549810759
  H          19.37588451648003    -18.65699167371200      9.17891590960894
  H          15.32275470869803    -18.25187229212277      6.42136310059286
  H          17.72136053993180    -16.91093697832411      9.67729805506900
  H          15.67900042749280    -15.97197892012864      9.09080599199444
  C          19.52200130900929    -11.46500000189361      7.84299815964941
  C          19.50765657256608    -10.49616409061005      9.02153452810495
  N          19.55679510099776    -11.22784083590840     10.26176714673326
  C          20.46235076995169    -11.00334473220571     11.23753190646429
  O          21.42645467371925    -10.26544861214318     11.13310721507099
  N          20.24575206307224    -11.77429291288363     12.36739291214414
  H          19.31747202207551    -10.95806358764823      6.89998075920785
  H          18.79961938532080    -12.25635860153064      8.00707003092650
  H          20.50490068284599    -11.92872991354680      7.76479865162608
  H          20.37514995080927     -9.83340162541532      9.00496665791226
  H          18.60755532554582     -9.87042370551182      8.99268611562596
  H          18.83438759088360    -11.91927111263093     10.41425495987015
  H          20.72890891490782    -11.43854565262042     13.18535387455647
  H          19.29300417561179    -12.06953064199758     12.53163350987758
