114
Coordinates from ORCA-job 02_dft_opt_cit_react E -2995.418835253507
  C      16.456148    -11.124911     12.449420
  C      15.269953    -11.361535     13.331865
  C      14.145648    -11.881414     12.816176
  C      13.974389    -11.968902     11.380138
  C      14.869101    -11.467597     10.533821
  C      16.111290    -10.758043     10.990460
  C      13.070050    -12.490580     13.655020
  O      13.135260    -12.429142     14.901608
  O      12.180295    -13.124525     13.019816
  O      15.939560     -9.380776     10.768805
  O      17.251728    -12.341547     12.491101
  C      16.603318    -13.513563     12.153014
  C      16.512925    -13.841412     10.684120
  O      17.345460    -13.315321      9.919612
  O      15.608768    -14.634158     10.303620
  C      16.141175    -14.345893     13.079936
  H      17.127735    -10.358373     12.848964
  H      15.402295    -11.273576     14.399272
  H      13.070233    -12.437945     11.021996
  H      14.695826    -11.493217      9.471175
  H      16.958731    -11.098017     10.378282
  H      16.862969     -8.831352     11.056342
  H      15.691224    -15.280907     12.797572
  H      16.204494    -14.113098     14.128936
  O      13.093712    -15.385638     11.519382
  H      13.953120    -15.161324     11.131547
  H      12.791328    -14.572634     11.950573
  C      12.785000    -13.909001      5.224001
  C      13.428464    -12.548500      5.480031
  N      14.791835    -12.587567      5.973667
  C      15.198757    -12.983227      7.205535
  N      14.481106    -13.787579      7.966747
  N      16.391834    -12.594961      7.605337
  H      13.453745    -14.682279      4.845952
  H      11.987789    -13.781629      4.493784
  H      12.322308    -14.301829      6.128048
  H      13.467560    -11.995926      4.539521
  H      12.788342    -11.987666      6.173613
  H      15.395392    -11.884669      5.574103
  H      14.878849    -14.114437      8.869088
  H      13.685514    -14.281856      7.609631
  H      16.784789    -12.934507      8.527278
  H      16.797232    -11.754491      7.228631
  C       8.412999    -16.813004     15.233001
  C       9.862629    -17.161291     15.593596
  N      10.579549    -16.077357     16.228415
  C      10.985674    -14.962211     15.552144
  N      10.801240    -14.842696     14.258926
  N      11.534397    -13.958113     16.213592
  H       7.736528    -17.001581     16.066622
  H       8.081284    -17.427193     14.399474
  H       8.335231    -15.769258     14.942415
  H       9.890260    -18.017774     16.269926
  H      10.413503    -17.442036     14.690570
  H      10.517913    -16.004428     17.230819
  H      11.353517    -14.049621     13.733544
  H      10.499904    -15.628126     13.711585
  H      12.163873    -13.245193     15.654826
  H      11.735411    -14.073358     17.192161
  C      13.998001     -9.220000      7.724999
  O      15.188290     -9.905968      8.006884
  C      14.273753     -7.789433      7.257803
  H      13.329681     -9.174595      8.584877
  H      13.498551     -9.783785      6.927094
  H      15.561152     -9.537095      8.835522
  H      14.814488     -7.255534      8.035620
  H      14.887889     -7.795214      6.359971
  H      13.341281     -7.269877      7.050001
  C      14.518001     -6.670000     12.632999
  S      13.920043     -8.368634     12.915873
  H      14.324364     -6.427596     11.588086
  H      15.583566     -6.629544     12.834355
  H      13.973027     -6.002869     13.292511
  H      14.751286     -8.894574     11.995439
  C      20.972000     -6.019000     10.963999
  C      20.062349     -7.045444     11.642271
  C      18.764450     -7.455114     10.888851
  O      18.017514     -8.222541     11.579814
  O      18.548065     -7.073956      9.744686
  H      20.586780     -5.000259     11.007275
  H      21.084282     -6.286295      9.915157
  H      21.955492     -6.029460     11.433826
  H      20.618736     -7.980816     11.753560
  H      19.773658     -6.712131     12.642847
  C      19.312999    -20.521999      7.175001
  C      18.301565    -19.460620      7.512463
  C      17.148905    -19.327793      6.745767
  C      18.487662    -18.578119      8.567428
  C      16.216238    -18.349545      7.019456
  C      17.559325    -17.592622      8.854138
  C      16.409889    -17.464971      8.081252
  O      15.470964    -16.523251      8.301955
  H      19.761228    -20.307815      6.204785
  H      18.839627    -21.501412      7.118676
  H      20.102648    -20.556823      7.921323
  H      16.981589    -20.004355      5.918345
  H      19.375885    -18.656992      9.178916
  H      15.322755    -18.251872      6.421363
  H      17.721361    -16.910937      9.677298
  H      15.679000    -15.971979      9.090806
  C      19.522001    -11.465000      7.842998
  C      19.507657    -10.496164      9.021535
  N      19.556795    -11.227841     10.261767
  C      20.462351    -11.003345     11.237532
  O      21.426455    -10.265449     11.133107
  N      20.245752    -11.774293     12.367393
  H      19.317472    -10.958064      6.899981
  H      18.799619    -12.256359      8.007070
  H      20.504901    -11.928730      7.764799
  H      20.375150     -9.833402      9.004967
  H      18.607555     -9.870424      8.992686
  H      18.834388    -11.919271     10.414255
  H      20.728909    -11.438546     13.185354
  H      19.293004    -12.069531     12.531634
114
Coordinates from ORCA-job 02_dft_opt_cit_react E -2995.432500682707
  C      16.469476    -11.137971     12.464215
  C      15.283237    -11.356943     13.357097
  C      14.149875    -11.867340     12.842616
  C      13.974652    -11.962266     11.396988
  C      14.874169    -11.468090     10.541331
  C      16.122554    -10.769053     10.999710
  C      13.080596    -12.474690     13.697945
  O      13.158422    -12.403024     14.953830
  O      12.180114    -13.114231     13.061027
  O      15.950700     -9.381094     10.779561
  O      17.269173    -12.374610     12.507675
  C      16.629764    -13.555021     12.169751
  C      16.532208    -13.877351     10.698334
  O      17.368428    -13.340083      9.929071
  O      15.609576    -14.668139     10.317755
  C      16.168302    -14.388624     13.101385
  H      17.148171    -10.379288     12.858999
  H      15.421772    -11.275821     14.429512
  H      13.068016    -12.435024     11.042789
  H      14.700320    -11.493350      9.475799
  H      16.962923    -11.111534     10.391132
  H      16.855540     -8.841774     11.064062
  H      15.700898    -15.321323     12.815949
  H      16.240845    -14.154094     14.157177
  O      13.092625    -15.393153     11.550158
  H      13.957789    -15.168497     11.159032
  H      12.789959    -14.574379     11.987813
  C      12.785000    -13.909001      5.224001
  C      13.423020    -12.542118      5.471492
  N      14.796161    -12.581157      5.951949
  C      15.202506    -12.982264      7.181740
  N      14.466032    -13.783047      7.948034
  N      16.403561    -12.596965      7.589126
  H      13.453745    -14.682279      4.845952
  H      11.973296    -13.791282      4.499000
  H      12.327928    -14.305660      6.136782
  H      13.456269    -11.985693      4.532824
  H      12.787844    -11.981402      6.171140
  H      15.403046    -11.882566      5.543778
  H      14.854360    -14.111586      8.857194
  H      13.664590    -14.272271      7.581700
  H      16.790709    -12.941878      8.505961
  H      16.806434    -11.750905      7.217105
  C       8.412999    -16.813004     15.233001
  C       9.861387    -17.177731     15.604416
  N      10.586749    -16.108351     16.274688
  C      10.988893    -14.983713     15.621739
  N      10.800248    -14.858212     14.314700
  N      11.547539    -13.976143     16.296756
  H       7.736528    -17.001581     16.066622
  H       8.073936    -17.422570     14.389033
  H       8.339617    -15.761058     14.947277
  H       9.881677    -18.046523     16.266304
  H      10.421711    -17.453452     14.704367
  H      10.525564    -16.055106     17.281917
  H      11.340153    -14.068543     13.794203
  H      10.498948    -15.650367     13.766628
  H      12.160787    -13.262790     15.742666
  H      11.762577    -14.110289     17.275527
  C      13.998001     -9.220000      7.724999
  O      15.200074     -9.905726      8.013456
  C      14.264765     -7.787677      7.250584
  H      13.329681     -9.174595      8.584877
  H      13.497906     -9.786191      6.929839
  H      15.572906     -9.537032      8.846027
  H      14.803311     -7.237736      8.030086
  H      14.883614     -7.792568      6.347400
  H      13.324713     -7.267472      7.035549
  C      14.518001     -6.670000     12.632999
  S      13.911895     -8.366692     12.960119
  H      14.324364     -6.427596     11.588086
  H      15.590916     -6.621010     12.827069
  H      13.983009     -5.979530     13.286010
  H      14.745315     -8.906320     12.027023
  C      20.972000     -6.019000     10.963999
  C      20.065351     -7.051118     11.652524
  C      18.768636     -7.462746     10.903018
  O      18.009708     -8.236974     11.600237
  O      18.560126     -7.086416      9.741307
  H      20.586780     -5.000259     11.007275
  H      21.088448     -6.284154      9.908406
  H      21.962469     -6.019833     11.432176
  H      20.627773     -7.984945     11.770097
  H      19.779717     -6.721118     12.658293
  C      19.312999    -20.521999      7.175001
  C      18.285201    -19.470623      7.518211
  C      17.119188    -19.345878      6.752040
  C      18.467177    -18.582216      8.579994
  C      16.172838    -18.369477      7.030616
  C      17.526410    -17.597063      8.872187
  C      16.368870    -17.481101      8.096444
  O      15.425503    -16.537754      8.316172
  H      19.761228    -20.307815      6.204785
  H      18.856222    -21.516290      7.117057
  H      20.111706    -20.551156      7.921425
  H      16.953189    -20.025831      5.919570
  H      19.363609    -18.653996      9.190855
  H      15.271366    -18.275179      6.431997
  H      17.687006    -16.908276      9.697731
  H      15.645624    -15.988738      9.102390
  C      19.522001    -11.465000      7.842998
  C      19.505628    -10.503649      9.032218
  N      19.561369    -11.245492     10.276068
  C      20.472742    -11.019977     11.260214
  O      21.441021    -10.261712     11.156957
  N      20.256654    -11.796442     12.392234
  H      19.317472    -10.958064      6.899981
  H      18.801357    -12.263174      7.999037
  H      20.509823    -11.932174      7.762155
  H      20.367935     -9.834423      9.017256
  H      18.604248     -9.878428      9.009994
  H      18.841168    -11.944320     10.426654
  H      20.737167    -11.455725     13.214070
  H      19.299961    -12.097244     12.555109
114
Coordinates from ORCA-job 02_dft_opt_cit_react E -2995.437964130601
  C      16.479523    -11.143428     12.467158
  C      15.298535    -11.361301     13.366587
  C      14.157914    -11.861423     12.851923
  C      13.977276    -11.956224     11.401720
  C      14.878395    -11.467435     10.541016
  C      16.130402    -10.776605     11.001475
  C      13.091982    -12.464139     13.718527
  O      13.175497    -12.382113     14.976211
  O      12.186349    -13.105139     13.081345
  O      15.954961     -9.379028     10.785691
  O      17.283374    -12.391969     12.514428
  C      16.650447    -13.576332     12.180770
  C      16.554377    -13.900923     10.710220
  O      17.391876    -13.358216      9.940410
  O      15.621895    -14.689289     10.329783
  C      16.187054    -14.404273     13.119378
  H      17.167183    -10.393216     12.858773
  H      15.440686    -11.289814     14.439994
  H      13.070379    -12.431559     11.050987
  H      14.705193    -11.492286      9.474421
  H      16.966623    -11.122110     10.395161
  H      16.843430     -8.847463     11.069096
  H      15.707986    -15.333425     12.836023
  H      16.263482    -14.161139     14.174585
  O      13.107789    -15.389006     11.568003
  H      13.974289    -15.154819     11.180778
  H      12.802309    -14.571738     12.009301
  C      12.785000    -13.909001      5.224001
  C      13.421384    -12.539002      5.464326
  N      14.804725    -12.577362      5.931354
  C      15.213730    -12.979693      7.157259
  N      14.465434    -13.770071      7.930370
  N      16.419568    -12.601109      7.569657
  H      13.453745    -14.682279      4.845952
  H      11.964166    -13.798362      4.505618
  H      12.330507    -14.307461      6.139644
  H      13.450033    -11.979783      4.527263
  H      12.793642    -11.976404      6.168576
  H      15.414527    -11.889142      5.509485
  H      14.844447    -14.095641      8.838640
  H      13.664490    -14.255936      7.558720
  H      16.798496    -12.949760      8.479097
  H      16.817490    -11.749580      7.202432
  C       8.412999    -16.813004     15.233001
  C       9.856814    -17.193941     15.609871
  N      10.593203    -16.136126     16.298797
  C      10.994331    -15.009060     15.660744
  N      10.807994    -14.876592     14.347183
  N      11.554520    -13.999453     16.342474
  H       7.736528    -17.001581     16.066622
  H       8.069527    -17.419535     14.386504
  H       8.343335    -15.759340     14.947305
  H       9.869325    -18.067103     16.266068
  H      10.424102    -17.475556     14.716418
  H      10.536124    -16.095874     17.307520
  H      11.331530    -14.094253     13.835460
  H      10.512463    -15.671761     13.800878
  H      12.146527    -13.292748     15.800951
  H      11.781346    -14.150769     17.316469
  C      13.998001     -9.220000      7.724999
  O      15.209993     -9.899909      8.017229
  C      14.256042     -7.789850      7.241407
  H      13.329681     -9.174595      8.584877
  H      13.499893     -9.792648      6.934587
  H      15.579493     -9.532907      8.852934
  H      14.786463     -7.223307      8.017591
  H      14.878522     -7.794565      6.338341
  H      13.313170     -7.274103      7.016732
  C      14.518001     -6.670000     12.632999
  S      13.908182     -8.363168     12.998895
  H      14.324364     -6.427596     11.588086
  H      15.593919     -6.613407     12.819481
  H      13.993968     -5.960914     13.278432
  H      14.734565     -8.919907     12.056186
  C      20.972000     -6.019000     10.963999
  C      20.071851     -7.052337     11.663054
  C      18.778215     -7.465960     10.923771
  O      18.011703     -8.237926     11.626413
  O      18.570811     -7.099929      9.752110
  H      20.586780     -5.000259     11.007275
  H      21.088772     -6.283011      9.906863
  H      21.966969     -6.011195     11.426848
  H      20.635483     -7.985449     11.786115
  H      19.794093     -6.723750     12.672465
  C      19.312999    -20.521999      7.175001
  C      18.276445    -19.478026      7.524799
  C      17.102471    -19.355907      6.762450
  C      18.457794    -18.587166      8.589874
  C      16.150035    -18.380744      7.045700
  C      17.512560    -17.601419      8.888370
  C      16.350312    -17.491482      8.113057
  O      15.402316    -16.547702      8.334405
  H      19.761228    -20.307815      6.204785
  H      18.870093    -21.524690      7.115350
  H      20.116982    -20.549058      7.918600
  H      16.935126    -20.035681      5.928565
  H      19.358079    -18.656514      9.197446
  H      15.245222    -18.286925      6.449922
  H      17.674105    -16.911622      9.713949
  H      15.632047    -15.995689      9.118548
  C      19.522001    -11.465000      7.842998
  C      19.499696    -10.510332      9.039765
  N      19.559334    -11.257594     10.285107
  C      20.469950    -11.029182     11.274277
  O      21.435183    -10.255494     11.172311
  N      20.259724    -11.806495     12.406517
  H      19.317472    -10.958064      6.899981
  H      18.804833    -12.271520      7.989576
  H      20.511852    -11.932140      7.761031
  H      20.356079     -9.833717      9.028050
  H      18.596630     -9.886906      9.021711
  H      18.843001    -11.962918     10.434236
  H      20.736674    -11.457088     13.227364
  H      19.302724    -12.112234     12.570047
114
Coordinates from ORCA-job 02_dft_opt_cit_react E -2995.441302912168
  C      16.486034    -11.137806     12.460693
  C      15.310926    -11.357696     13.363962
  C      14.164066    -11.847745     12.850897
  C      13.978916    -11.944750     11.400102
  C      14.880344    -11.463506     10.535698
  C      16.134478    -10.779225     10.996023
  C      13.098333    -12.443270     13.727035
  O      13.181337    -12.344671     14.982015
  O      12.192270    -13.087297     13.091572
  O      15.951498     -9.374919     10.784896
  O      17.297231    -12.392463     12.515949
  C      16.671991    -13.581632     12.191975
  C      16.583878    -13.917398     10.724430
  O      17.420723    -13.372375      9.955845
  O      15.648702    -14.706554     10.346621
  C      16.205507    -14.398789     13.139673
  H      17.182356    -10.392825     12.845966
  H      15.455899    -11.296932     14.437311
  H      13.073495    -12.424876     11.052669
  H      14.708755    -11.490631      9.468884
  H      16.969071    -11.129207     10.390423
  H      16.823281     -8.849218     11.069510
  H      15.718131    -15.325728     12.863276
  H      16.281199    -14.140275     14.191047
  O      13.142296    -15.373583     11.585929
  H      14.009711    -15.125929     11.206771
  H      12.827528    -14.559851     12.028267
  C      12.785000    -13.909001      5.224001
  C      13.423666    -12.538544      5.456607
  N      14.815500    -12.576604      5.910340
  C      15.229106    -12.976989      7.131969
  N      14.471355    -13.752828      7.912719
  N      16.439751    -12.608441      7.546643
  H      13.453745    -14.682279      4.845952
  H      11.958870    -13.802512      4.510932
  H      12.330966    -14.306748      6.140642
  H      13.448249    -11.978232      4.520148
  H      12.806476    -11.970995      6.165457
  H      15.431027    -11.907713      5.466493
  H      14.842341    -14.072777      8.819612
  H      13.675280    -14.242800      7.535897
  H      16.810995    -12.961013      8.449032
  H      16.830708    -11.749929      7.186579
  C       8.412999    -16.813004     15.233001
  C       9.848918    -17.215081     15.611691
  N      10.596833    -16.170057     16.313957
  C      10.995244    -15.040358     15.689338
  N      10.816122    -14.901018     14.373351
  N      11.548277    -14.029051     16.378783
  H       7.736528    -17.001581     16.066622
  H       8.064348    -17.415660     14.385923
  H       8.350608    -15.759139     14.947433
  H       9.850436    -18.091282     16.263880
  H      10.422459    -17.503951     14.724655
  H      10.547729    -16.144591     17.323752
  H      11.321463    -14.120935     13.869737
  H      10.533869    -15.700375     13.826170
  H      12.116995    -13.322697     15.849300
  H      11.791598    -14.197040     17.346092
  C      13.998001     -9.220000      7.724999
  O      15.219102     -9.889384      8.018529
  C      14.244493     -7.794442      7.227628
  H      13.329681     -9.174595      8.584877
  H      13.504033     -9.804813      6.941261
  H      15.581921     -9.525262      8.857768
  H      14.759671     -7.207611      7.999083
  H      14.873858     -7.800679      6.329189
  H      13.299116     -7.289699      6.987209
  C      14.518001     -6.670000     12.632999
  S      13.900443     -8.354549     13.029826
  H      14.324364     -6.427596     11.588086
  H      15.595567     -6.613267     12.812562
  H      14.006731     -5.945354     13.272376
  H      14.710780     -8.933233     12.083212
  C      20.972000     -6.019000     10.963999
  C      20.079083     -7.050224     11.672360
  C      18.787473     -7.468346     10.944207
  O      18.014151     -8.226986     11.654942
  O      18.582156     -7.121911      9.763619
  H      20.586780     -5.000259     11.007275
  H      21.086395     -6.283380      9.907008
  H      21.970389     -6.004121     11.420407
  H      20.642016     -7.983167     11.801664
  H      19.810266     -6.719827     12.683897
  C      19.312999    -20.521999      7.175001
  C      18.275424    -19.481760      7.533036
  C      17.095060    -19.358797      6.779540
  C      18.461850    -18.591000      8.598658
  C      16.141987    -18.385489      7.071528
  C      17.517730    -17.605190      8.907195
  C      16.349785    -17.497874      8.139269
  O      15.396999    -16.557615      8.369640
  H      19.761228    -20.307815      6.204785
  H      18.877791    -21.528304      7.113495
  H      20.120696    -20.551056      7.914909
  H      16.921724    -20.037422      5.945949
  H      19.366239    -18.661270      9.199965
  H      15.232849    -18.291370      6.483173
  H      17.684204    -16.917794      9.733170
  H      15.636814    -15.998643      9.148457
  C      19.522001    -11.465000      7.842998
  C      19.487382    -10.515581      9.043883
  N      19.550324    -11.262735     10.289939
  C      20.455799    -11.025302     11.282359
  O      21.411989    -10.236675     11.182127
  N      20.254294    -11.799686     12.416562
  H      19.317472    -10.958064      6.899981
  H      18.811516    -12.281177      7.979283
  H      20.514393    -11.927382      7.761431
  H      20.335559     -9.828695      9.035936
  H      18.580274     -9.897395      9.027005
  H      18.840305    -11.975867     10.438546
  H      20.726088    -11.435802     13.234199
  H      19.298760    -12.111215     12.582501
114
Coordinates from ORCA-job 02_dft_opt_cit_react E -2995.442973416833
  C      16.486718    -11.124424     12.450627
  C      15.314772    -11.346822     13.354105
  C      14.164976    -11.832290     12.843893
  C      13.977319    -11.933876     11.395049
  C      14.879102    -11.460164     10.528262
  C      16.133561    -10.777145     10.986642
  C      13.095539    -12.418395     13.725780
  O      13.173857    -12.301340     14.976479
  O      12.192083    -13.066382     13.092941
  O      15.942122     -9.371145     10.777691
  O      17.305478    -12.377668     12.514495
  C      16.684863    -13.570867     12.201447
  C      16.607740    -13.922030     10.736841
  O      17.443924    -13.378062      9.969809
  O      15.676828    -14.716486     10.363542
  C      16.214414    -14.376847     13.156727
  H      17.186308    -10.378514     12.828616
  H      15.460177    -11.290229     14.427217
  H      13.072666    -12.417325     11.050347
  H      14.709845    -11.491847      9.461515
  H      16.967831    -11.130455     10.380601
  H      16.801809     -8.847297     11.065831
  H      15.723619    -15.304178     12.889412
  H      16.285833    -14.102960     14.203799
  O      13.178073    -15.349773     11.603268
  H      14.046423    -15.092100     11.231896
  H      12.851285    -14.539827     12.043411
  C      12.785000    -13.909001      5.224001
  C      13.429359    -12.540575      5.451726
  N      14.824144    -12.580561      5.899854
  C      15.240571    -12.977031      7.119244
  N      14.476772    -13.740411      7.905871
  N      16.455848    -12.618015      7.531101
  H      13.453745    -14.682279      4.845952
  H      11.958906    -13.801957      4.511781
  H      12.329416    -14.304092      6.140483
  H      13.453310    -11.981508      4.514529
  H      12.821127    -11.966183      6.162407
  H      15.448784    -11.936304      5.433570
  H      14.843845    -14.055257      8.811929
  H      13.689411    -14.241515      7.525741
  H      16.823948    -12.972892      8.429918
  H      16.840325    -11.753085      7.178292
  C       8.412999    -16.813004     15.233001
  C       9.843383    -17.229200     15.611103
  N      10.598687    -16.191119     16.317385
  C      10.995015    -15.058949     15.699857
  N      10.822910    -14.915368     14.384709
  N      11.536027    -14.046339     16.396865
  H       7.736528    -17.001581     16.066622
  H       8.060788    -17.413606     14.386597
  H       8.356562    -15.759753     14.947306
  H       9.836012    -18.105640     16.262824
  H      10.419727    -17.524162     14.727691
  H      10.559142    -16.176577     17.327595
  H      11.314481    -14.132226     13.885791
  H      10.555333    -15.716817     13.833731
  H      12.088591    -13.332992     15.873387
  H      11.795117    -14.223186     17.358105
  C      13.998001     -9.220000      7.724999
  O      15.225757     -9.877461      8.017951
  C      14.231836     -7.798683      7.213671
  H      13.329681     -9.174595      8.584877
  H      13.508550     -9.818116      6.948017
  H      15.580631     -9.516867      8.861413
  H      14.731362     -7.194627      7.981124
  H      14.868577     -7.807290      6.321229
  H      13.283464     -7.308043      6.958380
  C      14.518001     -6.670000     12.632999
  S      13.885633     -8.342933     13.043326
  H      14.324364     -6.427596     11.588086
  H      15.596400     -6.623185     12.808383
  H      14.018368     -5.936217     13.270626
  H      14.677667     -8.941862     12.100394
  C      20.972000     -6.019000     10.963999
  C      20.083531     -7.046575     11.678667
  C      18.791447     -7.471286     10.956723
  O      18.011809     -8.209779     11.676235
  O      18.592520     -7.146945      9.768819
  H      20.586780     -5.000259     11.007275
  H      21.081667     -6.285275      9.907572
  H      21.972637     -6.000978     11.414788
  H      20.645756     -7.979364     11.813273
  H      19.819480     -6.711062     12.689755
  C      19.312999    -20.521999      7.175001
  C      18.280099    -19.480560      7.539936
  C      17.093989    -19.356425      6.797901
  C      18.475467    -18.590110      8.603175
  C      16.143620    -18.384932      7.100097
  C      17.534844    -17.605421      8.922253
  C      16.359640    -17.498969      8.166964
  O      15.403430    -16.565672      8.411693
  H      19.761228    -20.307815      6.204785
  H      18.876704    -21.527235      7.112173
  H      20.122364    -20.555772      7.912330
  H      16.912290    -20.034618      5.966202
  H      19.384687    -18.661408      9.196380
  H      15.228740    -18.291809      6.521646
  H      17.708668    -16.920660      9.748132
  H      15.652157    -15.998134      9.183443
  C      19.522001    -11.465000      7.842998
  C      19.472023    -10.516989      9.043628
  N      19.537589    -11.259615     10.290546
  C      20.437148    -11.009605     11.283700
  O      21.382645    -10.210028     11.184113
  N      20.244109    -11.780449     12.421342
  H      19.317472    -10.958064      6.899981
  H      18.819231    -12.289476      7.972897
  H      20.518103    -11.918609      7.763278
  H      20.311752     -9.819686      9.038050
  H      18.559270     -9.906655      9.024066
  H      18.833773    -11.979497     10.439511
  H      20.711107    -11.402210     13.235045
  H      19.290709    -12.096758     12.590880
114
Coordinates from ORCA-job 02_dft_opt_cit_react E -2995.444025680089
  C      16.481599    -11.108549     12.440215
  C      15.309632    -11.331333     13.341676
  C      14.158698    -11.815479     12.834502
  C      13.970412    -11.923887     11.387873
  C      14.874117    -11.458577     10.519454
  C      16.128072    -10.773109     10.975461
  C      13.082623    -12.388988     13.720147
  O      13.154823    -12.252450     14.966860
  O      12.181716    -13.040806     13.090571
  O      15.928748     -9.368002     10.766536
  O      17.307321    -12.356233     12.511917
  C      16.688841    -13.552874     12.208938
  C      16.624785    -13.920855     10.746763
  O      17.461748    -13.379865      9.981138
  O      15.702112    -14.724396     10.378585
  C      16.213061    -14.348210     13.170111
  H      17.179735    -10.357398     12.811185
  H      15.453259    -11.272468     14.414731
  H      13.064818    -12.407518     11.045355
  H      14.708316    -11.496529      9.452688
  H      16.962108    -11.128054     10.368258
  H      16.778508     -8.843455     11.060027
  H      15.720653    -15.277188     12.912920
  H      16.278871    -14.060572     14.213355
  O      13.206245    -15.317448     11.621436
  H      14.076041    -15.053911     11.256983
  H      12.866318    -14.511048     12.057455
  C      12.785000    -13.909001      5.224001
  C      13.437203    -12.543816      5.448334
  N      14.831199    -12.588417      5.896927
  C      15.248401    -12.980553      7.115442
  N      14.478903    -13.732362      7.907016
  N      16.468959    -12.630800      7.520644
  H      13.453745    -14.682279      4.845952
  H      11.961332    -13.799007      4.510202
  H      12.328058    -14.300249      6.140723
  H      13.463363    -11.987614      4.509495
  H      12.836440    -11.961317      6.158487
  H      15.469183    -11.975666      5.407573
  H      14.844774    -14.043779      8.812401
  H      13.703240    -14.249692      7.524222
  H      16.836794    -12.986399      8.418170
  H      16.847106    -11.759355      7.175953
  C       8.412999    -16.813004     15.233001
  C       9.841978    -17.232467     15.610447
  N      10.598744    -16.194360     16.314787
  C      10.992761    -15.060362     15.699497
  N      10.825221    -14.915636     14.386339
  N      11.520879    -14.045910     16.402714
  H       7.736528    -17.001581     16.066622
  H       8.060300    -17.414832     14.388191
  H       8.358194    -15.760855     14.945551
  H       9.830640    -18.106909     16.264636
  H      10.419172    -17.531080     14.728591
  H      10.570093    -16.187104     17.325110
  H      11.305785    -14.126759     13.889999
  H      10.570879    -15.717760     13.830122
  H      12.060707    -13.324032     15.882664
  H      11.795034    -14.225348     17.358986
  C      13.998001     -9.220000      7.724999
  O      15.232110     -9.863323      8.017755
  C      14.216612     -7.802125      7.199282
  H      13.329681     -9.174595      8.584877
  H      13.513204     -9.832021      6.955277
  H      15.577551     -9.507486      8.867027
  H      14.701849     -7.182717      7.962774
  H      14.859707     -7.813268      6.312193
  H      13.263932     -7.327753      6.931800
  C      14.518001     -6.670000     12.632999
  S      13.861793     -8.328781     13.047596
  H      14.324364     -6.427596     11.588086
  H      15.597066     -6.641126     12.805220
  H      14.030916     -5.929414     13.271579
  H      14.634336     -8.948562     12.112655
  C      20.972000     -6.019000     10.963999
  C      20.085454     -7.042340     11.684650
  C      18.791567     -7.474978     10.965306
  O      18.003762     -8.188935     11.693956
  O      18.604806     -7.175679      9.769457
  H      20.586780     -5.000259     11.007275
  H      21.074901     -6.288360      9.908052
  H      21.974719     -6.000281     11.409230
  H      20.647764     -7.974457     11.824428
  H      19.822271     -6.699113     12.693252
  C      19.312999    -20.521999      7.175001
  C      18.285992    -19.477273      7.545365
  C      17.092739    -19.354810      6.816725
  C      18.492132    -18.584805      8.603491
  C      16.145258    -18.385320      7.129159
  C      17.554293    -17.602575      8.932601
  C      16.369460    -17.498923      8.193536
  O      15.410476    -16.575126      8.455490
  H      19.761228    -20.307815      6.204785
  H      18.871206    -21.524154      7.111312
  H      20.122886    -20.560964      7.910906
  H      16.901967    -20.034330      5.988545
  H      19.407609    -18.654260      9.186688
  H      15.223181    -18.295822      6.562198
  H      17.736612    -16.918296      9.756626
  H      15.668562    -15.997952      9.218844
  C      19.522001    -11.465000      7.842998
  C      19.453351    -10.515921      9.041119
  N      19.521775    -11.252313     10.289721
  C      20.415820    -10.987269     11.282225
  O      21.350009    -10.177934     11.181620
  N      20.232088    -11.755608     12.424044
  H      19.317472    -10.958064      6.899981
  H      18.828189    -12.297765      7.968938
  H      20.523452    -11.906136      7.766746
  H      20.283484     -9.807199      9.037104
  H      18.533460     -9.916244      9.015863
  H      18.823955    -11.978458     10.438942
  H      20.694450    -11.363193     13.233622
  H      19.281159    -12.076475     12.598157
114
Coordinates from ORCA-job 02_dft_opt_cit_react E -2995.444720313541
  C      16.472005    -11.094661     12.431624
  C      15.297465    -11.314873     13.330371
  C      14.145730    -11.798036     12.825541
  C      13.958572    -11.914426     11.380102
  C      14.865982    -11.458178     10.510859
  C      16.119084    -10.768443     10.964950
  C      13.061949    -12.356676     13.713706
  O      13.129107    -12.202959     14.957725
  O      12.160909    -13.010560     13.087995
  O      15.914237     -9.364955     10.754331
  O      17.302581    -12.335362     12.508772
  C      16.684326    -13.534521     12.212938
  C      16.633088    -13.917388     10.752777
  O      17.472627    -13.380523      9.988044
  O      15.719904    -14.731910     10.388912
  C      16.202384    -14.320960     13.177992
  H      17.165336    -10.336360     12.797581
  H      15.438199    -11.249458     14.403481
  H      13.050416    -12.394581     11.038760
  H      14.704329    -11.503348      9.443841
  H      16.952574    -11.123102     10.356037
  H      16.755874     -8.838687     11.053498
  H      15.708721    -15.251725     12.930256
  H      16.263179    -14.023106     14.218562
  O      13.219178    -15.279493     11.637522
  H      14.090764    -15.014177     11.278706
  H      12.867753    -14.475896     12.069063
  C      12.785000    -13.909001      5.224001
  C      13.445357    -12.547156      5.445911
  N      14.836429    -12.598347      5.899033
  C      15.252879    -12.987134      7.117410
  N      14.477298    -13.727864      7.913623
  N      16.478907    -12.645532      7.514146
  H      13.453745    -14.682279      4.845952
  H      11.963919    -13.795626      4.508181
  H      12.328076    -14.296301      6.141858
  H      13.475746    -11.994427      4.505153
  H      12.849889    -11.956850      6.153770
  H      15.490490    -12.021810      5.387955
  H      14.844065    -14.038239      8.818114
  H      13.714776    -14.263279      7.528482
  H      16.847686    -13.000178      8.411899
  H      16.851228    -11.767758      7.178137
  C       8.412999    -16.813004     15.233001
  C       9.844958    -17.223104     15.610787
  N      10.595714    -16.178066     16.310007
  C      10.986427    -15.043163     15.693397
  N      10.820030    -14.899401     14.381941
  N      11.505048    -14.026495     16.400089
  H       7.736528    -17.001581     16.066622
  H       8.063866    -17.419899     14.390552
  H       8.353785    -15.762397     14.941499
  H       9.836732    -18.094355     16.269119
  H      10.422286    -17.521401     14.728820
  H      10.578178    -16.174577     17.320358
  H      11.292858    -14.104239     13.886838
  H      10.573775    -15.700778     13.820864
  H      12.035934    -13.297759     15.881940
  H      11.791542    -14.204495     17.352895
  C      13.998001     -9.220000      7.724999
  O      15.238751     -9.847499      8.019263
  C      14.199690     -7.804683      7.185316
  H      13.329681     -9.174595      8.584877
  H      13.517374     -9.845055      6.962641
  H      15.574088     -9.497345      8.875452
  H      14.674089     -7.172121      7.944429
  H      14.846542     -7.817999      6.301362
  H      13.241605     -7.346609      6.910049
  C      14.518001     -6.670000     12.632999
  S      13.831578     -8.313839     13.048278
  H      14.324364     -6.427596     11.588086
  H      15.597611     -6.663264     12.802026
  H      14.044495     -5.923077     13.273727
  H      14.586028     -8.954239     12.121588
  C      20.972000     -6.019000     10.963999
  C      20.084945     -7.038314     11.690480
  C      18.789775     -7.478697     10.970705
  O      17.991604     -8.168154     11.707284
  O      18.617830     -7.202613      9.767269
  H      20.586780     -5.000259     11.007275
  H      21.067842     -6.291999      9.908448
  H      21.976508     -6.001136     11.404577
  H      20.648237     -7.969117     11.835393
  H      19.819209     -6.686581     12.695354
  C      19.312999    -20.521999      7.175001
  C      18.289927    -19.474417      7.548762
  C      17.088213    -19.358252      6.833878
  C      18.506287    -18.576252      8.599265
  C      16.141765    -18.391135      7.154417
  C      17.568885    -17.597431      8.935991
  C      16.373076    -17.500774      8.214008
  O      15.411588    -16.586969      8.492041
  H      19.761228    -20.307815      6.204785
  H      18.865204    -21.521062      7.110846
  H      20.122682    -20.564640      7.910608
  H      16.889457    -20.041695      6.010996
  H      19.428875    -18.639664      9.171636
  H      15.211996    -18.308478      6.599002
  H      17.759028    -16.910027      9.755626
  H      15.679055    -16.000606      9.246756
  C      19.522001    -11.465000      7.842998
  C      19.433295    -10.513688      9.037825
  N      19.505015    -11.244143     10.288896
  C      20.394881    -10.964116     11.279985
  O      21.318558    -10.145458     11.176607
  N      20.221100    -11.731302     12.425799
  H      19.317472    -10.958064      6.899981
  H      18.837661    -12.305884      7.966515
  H      20.529734    -11.891823      7.771829
  H      20.253140     -9.793256      9.034947
  H      18.505609     -9.926504      9.005314
  H      18.812384    -11.975618     10.437821
  H      20.678984    -11.325923     13.231668
  H      19.272636    -12.056468     12.604742
114
Coordinates from ORCA-job 02_dft_opt_cit_react E -2995.445284175625
  C      16.459324    -11.084543     12.425188
  C      15.280777    -11.299874     13.321497
  C      14.127519    -11.779968     12.817957
  C      13.942750    -11.904161     11.372547
  C      14.855277    -11.457363     10.503362
  C      16.107425    -10.763316     10.956453
  C      13.036308    -12.322403     13.707807
  O      13.100637    -12.155816     14.950489
  O      12.131382    -12.975408     13.086537
  O      15.900000     -9.360992     10.743435
  O      17.291971    -12.318557     12.504943
  C      16.672781    -13.519263     12.212827
  C      16.632696    -13.913664     10.754621
  O      17.476318    -13.381915      9.990331
  O      15.728767    -14.739394     10.393598
  C      16.184588    -14.298969     13.179988
  H      17.146166    -10.319145     12.789025
  H      15.418713    -11.226691     14.394618
  H      13.031162    -12.378059     11.030994
  H      14.697993    -11.510524      9.435906
  H      16.940018    -11.116114     10.345311
  H      16.735512     -8.832984     11.047896
  H      15.689973    -15.231330     12.939921
  H      16.241514    -13.994694     14.219098
  O      13.215943    -15.237885     11.648167
  H      14.089363    -14.973367     11.294131
  H      12.855908    -14.436360     12.076130
  C      12.785000    -13.909001      5.224001
  C      13.452523    -12.550008      5.444005
  N      14.839692    -12.608433      5.903778
  C      15.254578    -12.995429      7.122148
  N      14.472539    -13.725048      7.923292
  N      16.485786    -12.660666      7.510178
  H      13.453745    -14.682279      4.845952
  H      11.965390    -13.793043      4.507015
  H      12.329677    -14.292922      6.143776
  H      13.488292    -12.000505      4.501551
  H      12.860145    -11.953194      6.148567
  H      15.510896    -12.070937      5.373118
  H      14.841967    -14.036680      8.826500
  H      13.723904    -14.278835      7.535677
  H      16.855385    -13.013074      8.409294
  H      16.852746    -11.776737      7.183417
  C       8.412999    -16.813004     15.233001
  C       9.851131    -17.202485     15.612187
  N      10.588685    -16.145076     16.305053
  C      10.975031    -15.010217     15.684810
  N      10.806360    -14.868147     14.374371
  N      11.489448    -13.991293     16.391736
  H       7.736528    -17.001581     16.066622
  H       8.071382    -17.428583     14.393765
  H       8.343424    -15.764610     14.934958
  H       9.853115    -18.070248     16.275069
  H      10.428786    -17.496276     14.728937
  H      10.582162    -16.142716     17.315394
  H      11.274841    -14.067003     13.879651
  H      10.561037    -15.667605     13.809965
  H      12.015684    -13.257855     15.874081
  H      11.784576    -14.166332     17.342498
  C      13.998001     -9.220000      7.724999
  O      15.245926     -9.829968      8.022564
  C      14.181575     -7.806917      7.171459
  H      13.329681     -9.174595      8.584877
  H      13.520820     -9.857086      6.970196
  H      15.570798     -9.485987      8.886270
  H      14.648719     -7.162555      7.925141
  H      14.829161     -7.822071      6.288074
  H      13.217313     -7.364453      6.892483
  C      14.518001     -6.670000     12.632999
  S      13.797330     -8.298556     13.049223
  H      14.324364     -6.427596     11.588086
  H      15.597987     -6.687531     12.797968
  H      14.059721     -5.915897     13.276037
  H      14.535616     -8.959187     12.128701
  C      20.972000     -6.019000     10.963999
  C      20.082531     -7.034125     11.696360
  C      18.786122     -7.478830     10.975152
  O      17.977605     -8.149067     11.716857
  O      18.627781     -7.220789      9.765615
  H      20.586780     -5.000259     11.007275
  H      21.061319     -6.296009      9.908916
  H      21.977910     -6.002900     11.401121
  H      20.647096     -7.963442     11.845764
  H      19.813371     -6.674554     12.697425
  C      19.312999    -20.521999      7.175001
  C      18.290684    -19.473374      7.550056
  C      17.079549    -19.368892      6.849053
  C      18.515798    -18.565160      8.590049
  C      16.131687    -18.404650      7.174510
  C      17.576342    -17.590287      8.931154
  C      16.369062    -17.505933      8.225993
  O      15.404728    -16.601240      8.516655
  H      19.761228    -20.307815      6.204785
  H      18.861151    -21.519091      7.110705
  H      20.122077    -20.565878      7.911138
  H      16.874327    -20.059583      6.033835
  H      19.445958    -18.618093      9.151159
  H      15.194108    -18.332462      6.630435
  H      17.772901    -16.895611      9.743348
  H      15.680891    -16.006956      9.263063
  C      19.522001    -11.465000      7.842998
  C      19.412754    -10.511727      9.034767
  N      19.488016    -11.237464     10.288649
  C      20.375018    -10.944080     11.277882
  O      21.289381    -10.116396     11.170212
  N      20.211324    -11.710660     12.427248
  H      19.317472    -10.958064      6.899981
  H      18.847203    -12.313705      7.964699
  H      20.536252    -11.877052      7.778513
  H      20.221844     -9.779583      9.033277
  H      18.477009     -9.938282      8.994618
  H      18.799557    -11.973152     10.436748
  H      20.664599    -11.293521     13.230007
  H      19.265109    -12.039717     12.610733
114
Coordinates from ORCA-job 02_dft_opt_cit_react E -2995.445655247907
  C      16.447264    -11.080456     12.421636
  C      15.265084    -11.290703     13.316815
  C      14.109343    -11.764933     12.813256
  C      13.926964    -11.893801     11.367039
  C      14.844531    -11.454680     10.498622
  C      16.096162    -10.758563     10.951989
  C      13.013023    -12.293769     13.703870
  O      13.077534    -12.122189     14.946707
  O      12.101140    -12.942161     13.086351
  O      15.889627     -9.356134     10.737551
  O      17.278709    -12.310535     12.500809
  C      16.658118    -13.511525     12.208525
  C      16.624922    -13.911650     10.752000
  O      17.473014    -13.385085      9.987873
  O      15.727394    -14.745324     10.391610
  C      16.165287    -14.288032     13.175950
  H      17.128801    -10.310832     12.786861
  H      15.401748    -11.212655     14.389889
  H      13.012446    -12.361211     11.023931
  H      14.690559    -11.515216      9.430795
  H      16.927735    -11.108750     10.338601
  H      16.722515     -8.828074     11.045132
  H      15.670780    -15.221641     12.939497
  H      16.219992    -13.981892     14.214922
  O      13.199734    -15.201386     11.648656
  H      14.074506    -14.938283     11.298295
  H      12.835773    -14.401132     12.075584
  C      12.785000    -13.909001      5.224001
  C      13.456365    -12.551488      5.442746
  N      14.840222    -12.614764      5.908550
  C      15.253805    -13.002225      7.126497
  N      14.466423    -13.722729      7.932256
  N      16.488716    -12.671925      7.508262
  H      13.453745    -14.682279      4.845952
  H      11.964914    -13.792401      4.507510
  H      12.332249    -14.291142      6.145791
  H      13.496749    -12.003624      4.499532
  H      12.864565    -11.951255      6.144351
  H      15.525031    -12.109150      5.364172
  H      14.839534    -14.037200      8.833839
  H      13.729716    -14.291320      7.541940
  H      16.857962    -13.021928      8.409248
  H      16.851387    -11.782879      7.189886
  C       8.412999    -16.813004     15.233001
  C       9.857862    -17.177015     15.614182
  N      10.578816    -16.105811     16.301809
  C      10.961256    -14.972009     15.677158
  N      10.787678    -14.831137     14.366948
  N      11.477957    -13.951517     16.381091
  H       7.736528    -17.001581     16.066622
  H       8.080825    -17.438892     14.397455
  H       8.329876    -15.767404     14.927038
  H       9.874147    -18.042108     16.280349
  H      10.436626    -17.463659     14.729363
  H      10.581360    -16.102840     17.312144
  H      11.255542    -14.026015     13.872078
  H      10.535232    -15.628141     13.802133
  H      12.004357    -13.216747     15.862788
  H      11.776179    -14.124567     17.331395
  C      13.998001     -9.220000      7.724999
  O      15.252550     -9.813752      8.026320
  C      14.165578     -7.809068      7.159348
  H      13.329681     -9.174595      8.584877
  H      13.522800     -9.866608      6.977061
  H      15.568594     -9.474931      8.896397
  H      14.629553     -7.155010      7.906861
  H      14.810895     -7.825671      6.274079
  H      13.195691     -7.378832      6.880206
  C      14.518001     -6.670000     12.632999
  S      13.767924     -8.285917     13.052701
  H      14.324364     -6.427596     11.588086
  H      15.598168     -6.707760     12.793601
  H      14.073881     -5.908554     13.277330
  H      14.494216     -8.962559     12.134380
  C      20.972000     -6.019000     10.963999
  C      20.079208     -7.030819     11.700444
  C      18.782783     -7.476193     10.977416
  O      17.967146     -8.137746     11.720514
  O      18.630084     -7.222777      9.765690
  H      20.586780     -5.000259     11.007275
  H      21.057929     -6.299202      9.909449
  H      21.978309     -6.004545     11.400277
  H      20.644573     -7.958845     11.853642
  H      19.806976     -6.666045     12.698762
  C      19.312999    -20.521999      7.175001
  C      18.288026    -19.474782      7.549249
  C      17.068272    -19.385577      6.860404
  C      18.518914    -18.553520      8.577056
  C      16.116966    -18.424138      7.186376
  C      17.575787    -17.581943      8.918347
  C      16.358938    -17.513462      8.226727
  O      15.391307    -16.614479      8.523036
  H      19.761228    -20.307815      6.204785
  H      18.861051    -21.519148      7.110883
  H      20.121488    -20.564256      7.912020
  H      16.858828    -20.086166      6.054625
  H      19.455717    -18.593544      9.128296
  H      15.172726    -18.364628      6.651973
  H      17.776365    -16.876921      9.720857
  H      15.673199    -16.015225      9.263295
  C      19.522001    -11.465000      7.842998
  C      19.395825    -10.511618      9.033321
  N      19.474137    -11.235284     10.289150
  C      20.359962    -10.933567     11.276744
  O      21.268247    -10.099203     11.164556
  N      20.203786    -11.699420     12.428579
  H      19.317472    -10.958064      6.899981
  H      18.854877    -12.319840      7.962886
  H      20.541418    -11.865402      7.785396
  H      20.195571     -9.769641      9.034069
  H      18.453124     -9.950497      8.987423
  H      18.788061    -11.973372     10.436163
  H      20.652988    -11.273745     13.229448
  H      19.258980    -12.031018     12.615021
114
Coordinates from ORCA-job 02_dft_opt_cit_react E -2995.445911349850
  C      16.438383    -11.080876     12.420193
  C      15.254225    -11.287717     13.315561
  C      14.095629    -11.754628     12.811126
  C      13.914626    -11.884034     11.364045
  C      14.835873    -11.449620     10.496613
  C      16.087736    -10.754461     10.951220
  C      12.996956    -12.274910     13.701819
  O      13.063876    -12.105642     14.945663
  O      12.077415    -12.916100     13.086408
  O      15.884091     -9.350836     10.737551
  O      17.266563    -12.310573     12.497064
  C      16.644888    -13.510916     12.202395
  C      16.614438    -13.911871     10.747083
  O      17.466340    -13.389854      9.983090
  O      15.719483    -14.748648     10.385482
  C      16.149970    -14.287387     13.168979
  H      17.117845    -10.311004     12.788915
  H      15.391370    -11.209557     14.388604
  H      12.998641    -12.347237     11.018877
  H      14.683558    -11.516019      9.428693
  H      16.918519    -11.102348     10.336122
  H      16.717526     -8.824233     11.045751
  H      15.657354    -15.222118     12.931998
  H      16.203592    -13.982413     14.208538
  O      13.179329    -15.174997     11.639990
  H      14.054860    -14.912135     11.292387
  H      12.815422    -14.375591     12.068478
  C      12.785000    -13.909001      5.224001
  C      13.456452    -12.551514      5.442008
  N      14.838591    -12.615566      5.911405
  C      15.251868    -13.005116      7.128302
  N      14.461232    -13.719879      7.937627
  N      16.488660    -12.677101      7.507432
  H      13.453745    -14.682279      4.845952
  H      11.963037    -13.793600      4.509260
  H      12.334594    -14.290975      6.147174
  H      13.499372    -12.003427      4.499026
  H      12.863583    -11.950928      6.141966
  H      15.531106    -12.128771      5.359584
  H      14.838089    -14.037304      8.837531
  H      13.733297    -14.298273      7.544309
  H      16.856161    -13.025745      8.410100
  H      16.848017    -11.784178      7.195777
  C       8.412999    -16.813004     15.233001
  C       9.862646    -17.155306     15.616059
  N      10.568774    -16.073319     16.301366
  C      10.948920    -14.940982     15.673369
  N      10.769674    -14.800154     14.363021
  N      11.471965    -13.920113     16.372901
  H       7.736528    -17.001581     16.066622
  H       8.089174    -17.448127     14.400990
  H       8.317520    -15.770266     14.919604
  H       9.892299    -18.019370     16.283180
  H      10.443532    -17.434524     14.730248
  H      10.577842    -16.070000     17.311680
  H      11.238906    -13.993438     13.867643
  H      10.505292    -15.594853     13.800523
  H      12.001463    -13.186467     15.853093
  H      11.769007    -14.093546     17.323631
  C      13.998001     -9.220000      7.724999
  O      15.258044     -9.800776      8.028898
  C      14.153307     -7.811396      7.149475
  H      13.329681     -9.174595      8.584877
  H      13.523448     -9.873787      6.982948
  H      15.567639     -9.465231      8.903209
  H      14.616486     -7.149360      7.890668
  H      14.794855     -7.829175      6.261228
  H      13.179179     -7.389555      6.871537
  C      14.518001     -6.670000     12.632999
  S      13.749013     -8.277502     13.058477
  H      14.324364     -6.427596     11.588086
  H      15.598273     -6.720356     12.789988
  H      14.084587     -5.902112     13.277159
  H      14.467147     -8.964328     12.139239
  C      20.972000     -6.019000     10.963999
  C      20.076175     -7.028986     11.701637
  C      18.780681     -7.471902     10.977154
  O      17.962029     -8.133786     11.719005
  O      18.629829     -7.219984      9.764492
  H      20.586780     -5.000259     11.007275
  H      21.058355     -6.300622      9.909893
  H      21.977675     -6.005424     11.401945
  H      20.641397     -7.956322     11.858477
  H      19.801922     -6.661862     12.698574
  C      19.312999    -20.521999      7.175001
  C      18.283671    -19.477750      7.547331
  C      17.056837    -19.404484      6.868798
  C      18.517996    -18.542563      8.562467
  C      16.101622    -18.445191      7.192056
  C      17.571286    -17.572836      8.900950
  C      16.347494    -17.520888      8.219371
  O      15.376477    -16.623643      8.514494
  H      19.761228    -20.307815      6.204785
  H      18.864414    -21.520839      7.111374
  H      20.121257    -20.560844      7.912641
  H      16.844536    -20.116072      6.073339
  H      19.460096    -18.569803      9.105571
  H      15.152099    -18.398607      6.665732
  H      17.774375    -16.856376      9.692744
  H      15.660232    -16.022262      9.251433
  C      19.522001    -11.465000      7.842998
  C      19.384080    -10.513677      9.033917
  N      19.464563    -11.237817     10.290175
  C      20.350351    -10.933174     11.276918
  O      21.256249    -10.095570     11.161510
  N      20.197686    -11.697772     12.430090
  H      19.317472    -10.958064      6.899981
  H      18.859970    -12.323897      7.960568
  H      20.544604    -11.858283      7.791108
  H      20.176725     -9.764331      9.037948
  H      18.436049     -9.962035      8.985080
  H      18.779366    -11.976816     10.436362
  H      20.643888    -11.267296     13.230266
  H      19.253275    -12.030232     12.617464
114
Coordinates from ORCA-job 02_dft_opt_cit_react E -2995.446116536687
  C      16.431515    -11.082367     12.419197
  C      15.246859    -11.287516     13.315320
  C      14.085499    -11.746851     12.809720
  C      13.904830    -11.873919     11.362155
  C      14.828474    -11.442138     10.495582
  C      16.081239    -10.750215     10.951926
  C      12.985862    -12.262305     13.700147
  O      13.056347    -12.099219     14.945134
  O      12.059186    -12.894859     13.085406
  O      15.881014     -9.344900     10.741285
  O      17.255853    -12.314156     12.493817
  C      16.633763    -13.513581     12.196650
  C      16.604345    -13.913650     10.742216
  O      17.459601    -13.395997      9.978487
  O      15.709268    -14.750041     10.378549
  C      16.138752    -14.291614     13.162154
  H      17.111923    -10.315145     12.791748
  H      15.385434    -11.212847     14.388382
  H      12.988688    -12.335477     11.015140
  H      14.676762    -11.513491      9.427821
  H      16.911751    -11.096323     10.335729
  H      16.717509     -8.821615     11.047964
  H      15.650088    -15.227818     12.922199
  H      16.191382    -13.988553     14.202347
  O      13.159613    -15.154361     11.626296
  H      14.035712    -14.890321     11.281259
  H      12.797500    -14.355877     12.057797
  C      12.785000    -13.909001      5.224001
  C      13.454365    -12.550710      5.441300
  N      14.836094    -12.612195      5.912383
  C      15.249782    -13.004267      7.127793
  N      14.457377    -13.716025      7.939546
  N      16.487369    -12.677596      7.506954
  H      13.453745    -14.682279      4.845952
  H      11.960777    -13.795719      4.511363
  H      12.336126    -14.291540      6.147880
  H      13.498137    -12.001473      4.499004
  H      12.859990    -11.951256      6.140685
  H      15.532065    -12.135114      5.356392
  H      14.837792    -14.035619      8.837901
  H      13.737126    -14.301864      7.542478
  H      16.852068    -13.026256      8.410846
  H      16.843315    -11.781057      7.201405
  C       8.412999    -16.813004     15.233001
  C       9.865293    -17.139498     15.617601
  N      10.559767    -16.050277     16.303168
  C      10.938969    -14.919159     15.673399
  N      10.754339    -14.777298     14.362919
  N      11.469377    -13.898984     16.368861
  H       7.736528    -17.001581     16.066622
  H       8.095552    -17.455862     14.404348
  H       8.307677    -15.773010     14.913036
  H       9.905433    -18.003911     16.283832
  H      10.449232    -17.412113     14.731657
  H      10.574533    -16.048302     17.313412
  H      11.224350    -13.970627     13.866921
  H      10.476472    -15.569819     13.804094
  H      12.002167    -13.167423     15.847026
  H      11.764032    -14.074976     17.319941
  C      13.998001     -9.220000      7.724999
  O      15.263214     -9.789204      8.030101
  C      14.142420     -7.814364      7.139881
  H      13.329681     -9.174595      8.584877
  H      13.523843     -9.880851      6.988874
  H      15.567229     -9.455758      8.907258
  H      14.604501     -7.144001      7.874354
  H      14.780174     -7.833363      6.248763
  H      13.164818     -7.399853      6.862456
  C      14.518001     -6.670000     12.632999
  S      13.738181     -8.271638     13.065470
  H      14.324364     -6.427596     11.588086
  H      15.598414     -6.727552     12.787167
  H      14.092630     -5.896508     13.276024
  H      14.448873     -8.965164     12.143869
  C      20.972000     -6.019000     10.963999
  C      20.073926     -7.028559     11.700406
  C      18.782174     -7.471782     10.973387
  O      17.961836     -8.135899     11.713407
  O      18.628814     -7.214811      9.761914
  H      20.586780     -5.000259     11.007275
  H      21.061580     -6.300522      9.910192
  H      21.976369     -6.005386     11.405133
  H      20.638353     -7.955338     11.862555
  H      19.796700     -6.659943     12.696108
  C      19.312999    -20.521999      7.175001
  C      18.279177    -19.481156      7.545216
  C      17.045385    -19.424510      6.877817
  C      18.516920    -18.530867      8.546026
  C      16.086750    -18.466740      7.197175
  C      17.567506    -17.561792      8.880550
  C      16.337503    -17.527115      8.209013
  O      15.363187    -16.629374      8.499192
  H      19.761228    -20.307815      6.204785
  H      18.869453    -21.523211      7.112173
  H      20.121425    -20.556805      7.912807
  H      16.829701    -20.148305      6.094294
  H      19.464211    -18.545234      9.080628
  H      15.131959    -18.433676      6.679640
  H      17.773637    -16.832841      9.660006
  H      15.645953    -16.026954      9.234475
  C      19.522001    -11.465000      7.842998
  C      19.374844    -10.517328      9.035857
  N      19.457153    -11.243124     10.291436
  C      20.343196    -10.938220     11.278097
  O      21.249028    -10.099769     11.161231
  N      20.191037    -11.701060     12.432054
  H      19.317472    -10.958064      6.899981
  H      18.863748    -12.327042      7.957280
  H      20.546670    -11.853651      7.795761
  H      20.161165     -9.761502      9.044123
  H      18.422184     -9.973889      8.985792
  H      18.772334    -11.982639     10.437426
  H      20.635078    -11.268019     13.232119
  H      19.246345    -12.033201     12.619030
114
Coordinates from ORCA-job 02_dft_opt_cit_react E -2995.446317104168
  C      16.425123    -11.083252     12.418038
  C      15.240900    -11.288069     13.314698
  C      14.077275    -11.740428     12.807776
  C      13.896386    -11.863367     11.360173
  C      14.821438    -11.432617     10.494355
  C      16.075516    -10.745258     10.952925
  C      12.976780    -12.253416     13.697531
  O      13.051483    -12.098194     14.943468
  O      12.043888    -12.876343     13.082306
  O      15.878213     -9.338152     10.747969
  O      17.245638    -12.318603     12.491069
  C      16.623689    -13.517134     12.192266
  C      16.595232    -13.916551     10.738416
  O      17.453889    -13.403706      9.975235
  O      15.698324    -14.750259     10.372568
  C      16.129915    -14.297535     13.156693
  H      17.108822    -10.320571     12.793829
  H      15.380983    -11.218951     14.387842
  H      12.981010    -12.325328     11.011801
  H      14.669837    -11.508277      9.426876
  H      16.906323    -11.089842     10.336059
  H      16.719364     -8.818518     11.052362
  H      15.647533    -15.235958     12.912437
  H      16.180909    -13.996130     14.197324
  O      13.141433    -15.135768     11.610325
  H      14.018169    -14.869872     11.268057
  H      12.781531    -14.338427     12.045338
  C      12.785000    -13.909001      5.224001
  C      13.451455    -12.549584      5.440307
  N      14.833463    -12.606210      5.912262
  C      15.247666    -13.000585      7.126065
  N      14.454456    -13.711966      7.938708
  N      16.485328    -12.674727      7.507190
  H      13.453745    -14.682279      4.845952
  H      11.958987    -13.797936      4.513026
  H      12.336642    -14.292072      6.148025
  H      13.495122    -11.999255      4.498623
  H      12.855681    -11.951524      6.139558
  H      15.530225    -12.133204      5.353797
  H      14.838222    -14.032418      8.835828
  H      13.742957    -14.305368      7.536732
  H      16.846588    -13.024725      8.411787
  H      16.836835    -11.774034      7.208148
  C       8.412999    -16.813004     15.233001
  C       9.866247    -17.129466     15.618729
  N      10.552275    -16.036069     16.306315
  C      10.931445    -14.905566     15.676331
  N      10.742140    -14.761952     14.365979
  N      11.468397    -13.886956     16.369017
  H       7.736528    -17.001581     16.066622
  H       8.099824    -17.462079     14.407497
  H       8.300567    -15.775476     14.907533
  H       9.913396    -17.995149     16.282947
  H      10.453804    -17.396703     14.733396
  H      10.573318    -16.037632     17.316385
  H      11.210737    -13.956170     13.869224
  H      10.450999    -15.552096     13.810899
  H      12.003122    -13.157452     15.844606
  H      11.761615    -14.066940     17.319799
  C      13.998001     -9.220000      7.724999
  O      15.268991     -9.776769      8.030421
  C      14.130467     -7.818298      7.128925
  H      13.329681     -9.174595      8.584877
  H      13.524962     -9.889517      6.995741
  H      15.566818     -9.445004      8.910029
  H      14.589437     -7.137843      7.855981
  H      14.765194     -7.838745      6.235653
  H      13.149411     -7.412549      6.850420
  C      14.518001     -6.670000     12.632999
  S      13.731230     -8.266385     13.072332
  H      14.324364     -6.427596     11.588086
  H      15.598523     -6.732455     12.784930
  H      14.099435     -5.891477     13.274541
  H      14.433224     -8.965543     12.148121
  C      20.972000     -6.019000     10.963999
  C      20.072360     -7.027880     11.698666
  C      18.782421     -7.468893     10.970636
  O      17.963469     -8.139194     11.707707
  O      18.629543     -7.213737      9.758838
  H      20.586780     -5.000259     11.007275
  H      21.064814     -6.299579      9.910284
  H      21.975271     -6.005100     11.407749
  H      20.635103     -7.954898     11.865965
  H      19.794111     -6.658139     12.693734
  C      19.312999    -20.521999      7.175001
  C      18.275386    -19.484265      7.543234
  C      17.033380    -19.446124      6.890354
  C      18.518327    -18.516502      8.526170
  C      16.072185    -18.489406      7.205774
  C      17.567240    -17.547271      8.856515
  C      16.329941    -17.531797      8.198364
  O      15.352558    -16.632868      8.482062
  H      19.761228    -20.307815      6.204785
  H      18.874630    -21.525496      7.113280
  H      20.121852    -20.552803      7.912593
  H      16.812509    -20.184137      6.121683
  H      19.471872    -18.516734      9.049748
  H      15.110965    -18.471501      6.699903
  H      17.778438    -16.803864      9.620635
  H      15.632173    -16.029189      9.216364
  C      19.522001    -11.465000      7.842998
  C      19.365429    -10.522309      9.038530
  N      19.449533    -11.250308     10.292573
  C      20.335487    -10.945994     11.279589
  O      21.242425    -10.108442     11.162625
  N      20.181816    -11.706732     12.434217
  H      19.317472    -10.958064      6.899981
  H      18.867270    -12.330200      7.952741
  H      20.548422    -11.849458      7.799754
  H      20.145005     -9.759627      9.051995
  H      18.408053     -9.987278      8.987941
  H      18.765408    -11.990498     10.439257
  H      20.624633    -11.272548     13.234308
  H      19.236469    -12.037643     12.620136
114
Coordinates from ORCA-job 02_dft_opt_cit_react E -2995.446493345640
  C      16.418749    -11.082458     12.416473
  C      15.235216    -11.287694     13.312844
  C      14.070481    -11.735465     12.804602
  C      13.889427    -11.854122     11.357249
  C      14.814902    -11.422819     10.492036
  C      16.070243    -10.739868     10.953032
  C      12.968411    -12.247702     13.693210
  O      13.046991    -12.099458     14.939705
  O      12.031264    -12.861744     13.076569
  O      15.874850     -9.331438     10.755468
  O      17.236491    -12.321567     12.489197
  C      16.615200    -13.519609     12.190339
  C      16.588334    -13.919911     10.736742
  O      17.450489    -13.412170      9.974378
  O      15.688580    -14.749780     10.369527
  C      16.123041    -14.302166     13.153979
  H      17.106760    -10.324545     12.793921
  H      15.375932    -11.223792     14.386146
  H      12.975258    -12.317887     11.008351
  H      14.663257    -11.501334      9.424851
  H      16.902108    -11.082863     10.336134
  H      16.721970     -8.816674     11.056049
  H      15.648163    -15.243375     12.905714
  H      16.171604    -14.001354     14.194718
  O      13.126368    -15.119644     11.596777
  H      14.003967    -14.852676     11.257127
  H      12.768151    -14.323198     12.034303
  C      12.785000    -13.909001      5.224001
  C      13.449169    -12.548612      5.439007
  N      14.831575    -12.599811      5.911970
  C      15.245722    -12.995689      7.124659
  N      14.452576    -13.709862      7.935930
  N      16.482701    -12.669607      7.509210
  H      13.453745    -14.682279      4.845952
  H      11.958506    -13.799290      4.513398
  H      12.336035    -14.291930      6.147761
  H      13.492562    -11.998310      4.497287
  H      12.852351    -11.951078      6.137753
  H      15.527374    -12.126278      5.352773
  H      14.838884    -14.029232      8.832534
  H      13.751158    -14.311568      7.528429
  H      16.840898    -13.021953      8.413804
  H      16.828620    -11.764272      7.216901
  C       8.412999    -16.813004     15.233001
  C       9.865948    -17.125556     15.619627
  N      10.547434    -16.030721     16.309794
  C      10.927057    -14.900055     15.680901
  N      10.734881    -14.754898     14.370951
  N      11.467546    -13.883118     16.372850
  H       7.736528    -17.001581     16.066622
  H       8.101694    -17.466067     14.409904
  H       8.296914    -15.777186     14.903928
  H       9.915502    -17.992578     16.281967
  H      10.456880    -17.389823     14.735496
  H      10.575091    -16.037304     17.319587
  H      11.199061    -13.950026     13.873170
  H      10.433875    -15.542656     13.818072
  H      12.001607    -13.154956     15.845610
  H      11.761935    -14.066831     17.322496
  C      13.998001     -9.220000      7.724999
  O      15.275028     -9.763631      8.030388
  C      14.117615     -7.822738      7.117303
  H      13.329681     -9.174595      8.584877
  H      13.527418     -9.899454      7.003060
  H      15.565987     -9.433531      8.912374
  H      14.571027     -7.131262      7.837270
  H      14.750992     -7.844702      6.223192
  H      13.133071     -7.427504      6.836024
  C      14.518001     -6.670000     12.632999
  S      13.726779     -8.261496     13.077299
  H      14.324364     -6.427596     11.588086
  H      15.598536     -6.735894     12.783547
  H      14.104463     -5.887787     13.273314
  H      14.419324     -8.965215     12.150716
  C      20.972000     -6.019000     10.963999
  C      20.071355     -7.027925     11.696039
  C      18.785887     -7.473373     10.964707
  O      17.967429     -8.146028     11.700043
  O      18.629352     -7.209812      9.755517
  H      20.586780     -5.000259     11.007275
  H      21.068298     -6.298038      9.910214
  H      21.974194     -6.004529     11.410126
  H      20.632249     -7.954824     11.869850
  H      19.789636     -6.656065     12.689529
  C      19.312999    -20.521999      7.175001
  C      18.273283    -19.486131      7.541947
  C      17.022015    -19.466758      6.906776
  C      18.523576    -18.500130      8.504642
  C      16.059553    -18.510648      7.219574
  C      17.571952    -17.530303      8.831790
  C      16.326020    -17.534151      8.190865
  O      15.346432    -16.634521      8.469043
  H      19.761228    -20.307815      6.204785
  H      18.877931    -21.526816      7.114364
  H      20.122341    -20.550023      7.912177
  H      16.794217    -20.219575      6.154729
  H      19.484310    -18.486024      9.014673
  H      15.090895    -18.508195      6.728153
  H      17.790361    -16.771771      9.578646
  H      15.621728    -16.028673      9.202438
  C      19.522001    -11.465000      7.842998
  C      19.355792    -10.527447      9.041005
  N      19.442127    -11.257352     10.293255
  C      20.327743    -10.953182     11.280810
  O      21.236317    -10.117511     11.164928
  N      20.171349    -11.712188     12.436021
  H      19.317472    -10.958064      6.899981
  H      18.870719    -12.333469      7.947393
  H      20.550165    -11.844912      7.802710
  H      20.128293     -9.757684      9.059521
  H      18.393723    -10.000917      8.989830
  H      18.759240    -11.998692     10.441583
  H      20.614316    -11.278353     13.236116
  H      19.225160    -12.041293     12.620788
114
Coordinates from ORCA-job 02_dft_opt_cit_react E -2995.446647528594
  C      16.412035    -11.080687     12.415114
  C      15.228713    -11.286590     13.309992
  C      14.064315    -11.732797     12.800178
  C      13.884018    -11.848133     11.353010
  C      14.809257    -11.414643     10.488635
  C      16.065252    -10.734673     10.952411
  C      12.959492    -12.245043     13.686907
  O      13.040972    -12.101803     14.933632
  O      12.020060    -12.851749     13.068207
  O      15.870258     -9.325541     10.763445
  O      17.228120    -12.322701     12.488252
  C      16.607470    -13.520564     12.190594
  C      16.582955    -13.923489     10.737011
  O      17.448892    -13.421120      9.975752
  O      15.680049    -14.749330     10.369634
  C      16.116107    -14.304357     13.153659
  H      17.103948    -10.326514     12.792752
  H      15.368521    -11.225822     14.383554
  H      12.970936    -12.313835     11.004077
  H      14.657669    -11.493718      9.421549
  H      16.898728    -11.075581     10.335872
  H      16.722822     -8.813954     11.060328
  H      15.648488    -15.248461     12.902798
  H      16.161526    -14.003072     14.194246
  O      13.113237    -15.106604     11.588107
  H      13.992019    -14.840662     11.250651
  H      12.756032    -14.310217     12.026207
  C      12.785000    -13.909001      5.224001
  C      13.448507    -12.548119      5.437336
  N      14.830826    -12.595134      5.912307
  C      15.243756    -12.991708      7.124769
  N      14.451462    -13.712031      7.932004
  N      16.479000    -12.663437      7.514001
  H      13.453745    -14.682279      4.845952
  H      11.959533    -13.799330      4.512293
  H      12.334757    -14.290714      6.147441
  H      13.492361    -11.999706      4.494545
  H      12.850852    -11.949503      6.134384
  H      15.524959    -12.117457      5.354579
  H      14.839060    -14.028309      8.829108
  H      13.761449    -14.323085      7.518927
  H      16.835321    -13.018685      8.417968
  H      16.818238    -11.753055      7.228652
  C       8.412999    -16.813004     15.233001
  C       9.865045    -17.126546     15.620383
  N      10.545374    -16.032078     16.312421
  C      10.925442    -14.900659     15.685237
  N      10.732491    -14.754805     14.375927
  N      11.465778    -13.884822     16.378258
  H       7.736528    -17.001581     16.066622
  H       8.101526    -17.467478     14.411118
  H       8.296539    -15.777838     14.902719
  H       9.912806    -17.994183     16.282017
  H      10.458194    -17.390543     14.737545
  H      10.579555    -16.043913     17.321848
  H      11.189647    -13.949871     13.876619
  H      10.426299    -15.540165     13.822721
  H      11.996626    -13.156963     15.848143
  H      11.764472    -14.070493     17.326067
  C      13.998001     -9.220000      7.724999
  O      15.281282     -9.749410      8.031008
  C      14.103771     -7.827228      7.105542
  H      13.329681     -9.174595      8.584877
  H      13.531494     -9.910187      7.010372
  H      15.564588     -9.421323      8.915857
  H      14.549590     -7.124662      7.819294
  H      14.737507     -7.850556      6.211877
  H      13.115546     -7.444343      6.820471
  C      14.518001     -6.670000     12.632999
  S      13.721345     -8.256432     13.079142
  H      14.324364     -6.427596     11.588086
  H      15.598347     -6.739767     12.782908
  H      14.108390     -5.885389     13.272787
  H      14.404772     -8.964480     12.151017
  C      20.972000     -6.019000     10.963999
  C      20.070477     -7.026741     11.694861
  C      18.784537     -7.471624     10.962611
  O      17.969470     -8.149660     11.695642
  O      18.631393     -7.211935      9.752669
  H      20.586780     -5.000259     11.007275
  H      21.069019     -6.296824      9.909952
  H      21.974044     -6.004687     11.410302
  H      20.629218     -7.954398     11.872205
  H      19.788131     -6.652945     12.687439
  C      19.312999    -20.521999      7.175001
  C      18.272880    -19.486489      7.541517
  C      17.011449    -19.485674      6.926972
  C      18.532482    -18.482189      8.482290
  C      16.048811    -18.529910      7.238949
  C      17.581010    -17.511842      8.807730
  C      16.325021    -17.534474      8.187895
  O      15.344279    -16.635378      8.463155
  H      19.761228    -20.307815      6.204785
  H      18.878392    -21.526800      7.115170
  H      20.122667    -20.548924      7.911803
  H      16.775451    -20.253233      6.192687
  H      19.501200    -18.453662      8.976290
  H      15.071911    -18.542646      6.764489
  H      17.808285    -16.738067      9.535982
  H      15.615233    -16.026166      9.195156
  C      19.522001    -11.465000      7.842998
  C      19.345387    -10.532297      9.042835
  N      19.434373    -11.263845     10.293247
  C      20.319444    -10.958995     11.281006
  O      21.229301    -10.125549     11.166163
  N      20.160305    -11.716934     12.436753
  H      19.317472    -10.958064      6.899981
  H      18.874240    -12.336900      7.941602
  H      20.552170    -11.839336      7.804817
  H      20.110759     -9.755489      9.065762
  H      18.378775    -10.014259      8.990532
  H      18.753471    -12.006665     10.443960
  H      20.605089    -11.284847     13.236658
  H      19.213359    -12.043935     12.620874
114
Coordinates from ORCA-job 02_dft_opt_cit_react E -2995.446824292468
  C      16.404294    -11.078419     12.414012
  C      15.220098    -11.284480     13.306213
  C      14.057404    -11.732006     12.794332
  C      13.879440    -11.845935     11.346904
  C      14.804218    -11.408939     10.483894
  C      16.059852    -10.729893     10.950899
  C      12.948713    -12.243963     13.678540
  O      13.031713    -12.103286     14.925325
  O      12.008347    -12.845249     13.057524
  O      15.864317     -9.320647     10.770446
  O      17.219893    -12.321873     12.488083
  C      16.599687    -13.519906     12.192536
  C      16.578140    -13.927160     10.739070
  O      17.448456    -13.430654      9.979091
  O      15.672085    -14.749419     10.372721
  C      16.107159    -14.303180     13.155362
  H      17.098415    -10.326025     12.790972
  H      15.357181    -11.223713     14.380150
  H      12.967058    -12.312789     10.997858
  H      14.652893    -11.485786      9.416620
  H      16.895633    -11.067673     10.335288
  H      16.721861     -8.812205     11.062183
  H      15.644876    -15.249764     12.904184
  H      16.148940    -14.000268     14.195588
  O      13.099454    -15.096495     11.585580
  H      13.979929    -14.834476     11.249854
  H      12.742890    -14.298624     12.021576
  C      12.785000    -13.909001      5.224001
  C      13.449924    -12.548203      5.435199
  N      14.831383    -12.593430      5.913812
  C      15.241652    -12.990186      7.127114
  N      14.451099    -13.720070      7.927639
  N      16.473669    -12.656593      7.522595
  H      13.453745    -14.682279      4.845952
  H      11.961620    -13.798160      4.510149
  H      12.333453    -14.288351      6.147463
  H      13.495857    -12.003927      4.490132
  H      12.851213    -11.946455      6.128568
  H      15.523900    -12.108407      5.360374
  H      14.838430    -14.031398      8.826431
  H      13.773807    -14.341696      7.509319
  H      16.829832    -13.015173      8.425304
  H      16.805024    -11.740643      7.244905
  C       8.412999    -16.813004     15.233001
  C       9.864257    -17.129789     15.621437
  N      10.545223    -16.036022     16.313815
  C      10.925171    -14.903625     15.688156
  N      10.733671    -14.758409     14.379412
  N      11.461755    -13.887504     16.383193
  H       7.736528    -17.001581     16.066622
  H       8.100434    -17.466839     14.411078
  H       8.298244    -15.777544     14.903518
  H       9.907629    -17.996651     16.284278
  H      10.458190    -17.395883     14.739723
  H      10.585288    -16.052015     17.322881
  H      11.181785    -13.951829     13.877913
  H      10.426955    -15.541514     13.823361
  H      11.987427    -13.159010     15.850269
  H      11.767493    -14.072364     17.328819
  C      13.998001     -9.220000      7.724999
  O      15.287621     -9.733667      8.033015
  C      14.088865     -7.831533      7.093858
  H      13.329681     -9.174595      8.584877
  H      13.537283     -9.921339      7.017410
  H      15.562381     -9.408328      8.921469
  H      14.525777     -7.118268      7.802364
  H      14.724242     -7.855899      6.201520
  H      13.096635     -7.462634      6.804705
  C      14.518001     -6.670000     12.632999
  S      13.713549     -8.251194     13.078400
  H      14.324364     -6.427596     11.588086
  H      15.597980     -6.744642     12.782765
  H      14.111556     -5.883979     13.272939
  H      14.388941     -8.963100     12.148860
  C      20.972000     -6.019000     10.963999
  C      20.069264     -7.025990     11.693796
  C      18.784731     -7.474930     10.958383
  O      17.970956     -8.153889     11.690627
  O      18.631902     -7.210463      9.749874
  H      20.586780     -5.000259     11.007275
  H      21.069081     -6.296006      9.909693
  H      21.973963     -6.005235     11.410259
  H      20.626301     -7.953942     11.874273
  H      19.783710     -6.649694     12.684549
  C      19.312999    -20.521999      7.175001
  C      18.273628    -19.485609      7.542138
  C      17.000868    -19.503739      6.951721
  C      18.544371    -18.462570      8.459049
  C      16.038624    -18.548303      7.264843
  C      17.593169    -17.492190      8.784584
  C      16.325426    -17.533696      8.190222
  O      15.344374    -16.636632      8.466073
  H      19.761228    -20.307815      6.204785
  H      18.876118    -21.525582      7.115480
  H      20.122812    -20.549529      7.911579
  H      16.755638    -20.286229      6.236566
  H      19.522001    -18.418880      8.933983
  H      15.052601    -18.576210      6.810160
  H      17.830507    -16.702799      9.492683
  H      15.612225    -16.022699      9.195559
  C      19.522001    -11.465000      7.842998
  C      19.334200    -10.536435      9.043879
  N      19.426872    -11.269179     10.292826
  C      20.311871    -10.962490     11.280228
  O      21.222341    -10.130587     11.165724
  N      20.150919    -11.720124     12.436429
  H      19.317472    -10.958064      6.899981
  H      18.878000    -12.340564      7.935366
  H      20.554580    -11.832500      7.806472
  H      20.092218     -9.752511      9.070109
  H      18.363038    -10.027196      8.989563
  H      18.748499    -12.013859     10.446368
  H      20.599055    -11.290924     13.235919
  H      19.203383    -12.045023     12.620769
114
Coordinates from ORCA-job 02_dft_opt_cit_react E -2995.447032009260
  C      16.395078    -11.076569     12.413746
  C      15.208550    -11.282052     13.302089
  C      14.048807    -11.733174     12.787188
  C      13.875392    -11.847816     11.338874
  C      14.799908    -11.405944     10.478254
  C      16.053793    -10.725673     10.949395
  C      12.935537    -12.243763     13.668260
  O      13.018360    -12.103494     14.915053
  O      11.994829    -12.841510     13.044984
  O      15.856865     -9.316611     10.776828
  O      17.210856    -12.319883     12.488788
  C      16.590554    -13.518293     12.195902
  C      16.572196    -13.931213     10.743093
  O      17.447743    -13.441582      9.984410
  O      15.663024    -14.750353     10.378563
  C      16.094244    -14.298756     13.158930
  H      17.089055    -10.323922     12.790309
  H      15.340963    -11.218059     14.376487
  H      12.963504    -12.314671     10.988630
  H      14.648968    -11.477177      9.410426
  H      16.892636    -11.058943     10.335339
  H      16.718120     -8.809704     11.062379
  H      15.634142    -15.246946     12.909928
  H      16.132094    -13.993136     14.198602
  O      13.082163    -15.090278     11.588953
  H      13.964980    -14.835380     11.254770
  H      12.726723    -14.288645     12.019683
  C      12.785000    -13.909001      5.224001
  C      13.453334    -12.548850      5.432435
  N      14.833035    -12.594983      5.916795
  C      15.239014    -12.991865      7.132010
  N      14.451686    -13.735384      7.922918
  N      16.465380    -12.648118      7.536443
  H      13.453745    -14.682279      4.845952
  H      11.963951    -13.796273      4.507825
  H      12.332772    -14.285006      6.148135
  H      13.503796    -12.011109      4.483874
  H      12.852768    -11.941724      6.119423
  H      15.523968    -12.097987      5.371908
  H      14.836814    -14.040139      8.824745
  H      13.788483    -14.368699      7.499622
  H      16.823350    -13.010967      8.437037
  H      16.787301    -11.725789      7.267988
  C       8.412999    -16.813004     15.233001
  C       9.864009    -17.132962     15.622995
  N      10.545769    -16.039117     16.313996
  C      10.924667    -14.905935     15.688980
  N      10.737154    -14.763068     14.380360
  N      11.454178    -13.887441     16.385891
  H       7.736528    -17.001581     16.066622
  H       8.099482    -17.464830     14.409930
  H       8.300812    -15.776597     14.905678
  H       9.902352    -17.997551     16.288953
  H      10.457424    -17.402570     14.742062
  H      10.590129    -16.056982     17.322805
  H      11.174772    -13.953143     13.876025
  H      10.433671    -15.544371     13.819885
  H      11.973780    -13.157722     15.850188
  H      11.768320    -14.068375     17.329479
  C      13.998001     -9.220000      7.724999
  O      15.294224     -9.715508      8.036990
  C      14.072476     -7.835792      7.081907
  H      13.329681     -9.174595      8.584877
  H      13.544884     -9.932970      7.024229
  H      15.559168     -9.393779      8.929996
  H      14.499801     -7.112063      7.785608
  H      14.709976     -7.860788      6.191161
  H      13.075789     -7.482464      6.788980
  C      14.518001     -6.670000     12.632999
  S      13.701982     -8.245753     13.075784
  H      14.324364     -6.427596     11.588086
  H      15.597431     -6.751311     12.782729
  H      14.114916     -5.882847     13.273578
  H      14.370868     -8.961105     12.144476
  C      20.972000     -6.019000     10.963999
  C      20.067502     -7.024788     11.693702
  C      18.782249     -7.474273     10.955928
  O      17.969708     -8.154669     11.687292
  O      18.632649     -7.209868      9.747251
  H      20.586780     -5.000259     11.007275
  H      21.067687     -6.295984      9.909497
  H      21.974172     -6.006511     11.409618
  H      20.623075     -7.953450     11.874557
  H      19.779682     -6.646844     12.683069
  C      19.312999    -20.521999      7.175001
  C      18.274779    -19.484272      7.543924
  C      16.989422    -19.522905      6.982142
  C      18.558116    -18.441273      8.434206
  C      16.027484    -18.568248      7.298285
  C      17.606797    -17.471726      8.761707
  C      16.325597    -17.533591      8.197929
  O      15.344577    -16.639947      8.477994
  H      19.761228    -20.307815      6.204785
  H      18.872065    -21.523597      7.115166
  H      20.122830    -20.551484      7.911477
  H      16.734305    -20.321079      6.288142
  H      19.545584    -18.380833      8.886429
  H      15.031507    -18.612102      6.866774
  H      17.854728    -16.665854      9.447520
  H      15.611629    -16.019758      9.203221
  C      19.522001    -11.465000      7.842998
  C      19.321673    -10.540434      9.044582
  N      19.419148    -11.274297     10.292354
  C      20.304903    -10.965022     11.278512
  O      21.215066    -10.133603     11.162666
  N      20.143761    -11.722530     12.435205
  H      19.317472    -10.958064      6.899981
  H      18.881977    -12.344507      7.928195
  H      20.557380    -11.824510      7.808386
  H      20.071866     -9.749092      9.073338
  H      18.345749    -10.040765      8.987507
  H      18.743812    -12.021020     10.449022
  H      20.596712    -11.297050     13.233900
  H      19.195881    -12.045290     12.620970
114
Coordinates from ORCA-job 02_dft_opt_cit_react E -2995.447279854769
  C      16.383892    -11.075085     12.414392
  C      15.193532    -11.279147     13.297926
  C      14.037476    -11.734845     12.778881
  C      13.870887    -11.852080     11.329167
  C      14.795837    -11.404557     10.472149
  C      16.046575    -10.721583     10.948515
  C      12.919438    -12.241967     13.656602
  O      13.000271    -12.100242     14.903378
  O      11.978093    -12.837683     13.031572
  O      15.847823     -9.312670     10.782286
  O      17.199927    -12.317011     12.490352
  C      16.578779    -13.515955     12.200749
  C      16.563651    -13.935760     10.749652
  O      17.445477    -13.454902      9.991973
  O      15.651408    -14.752144     10.387120
  C      16.076163    -14.291014     13.164709
  H      17.075339    -10.320674     12.792006
  H      15.319652    -11.209476     14.372787
  H      12.959861    -12.318102     10.975651
  H      14.645238    -11.467101      9.403525
  H      16.889428    -11.048927     10.336837
  H      16.711747     -8.806572     11.059811
  H      15.614479    -15.239590     12.920008
  H      16.110025    -13.981540     14.203555
  O      13.059533    -15.087353     11.596940
  H      13.945533    -14.842324     11.264747
  H      12.706487    -14.279336     12.019076
  C      12.785000    -13.909001      5.224001
  C      13.458212    -12.549920      5.428829
  N      14.835341    -12.598866      5.921386
  C      15.235526    -12.996086      7.139405
  N      14.453598    -13.757667      7.917847
  N      16.452922    -12.636059      7.556665
  H      13.453745    -14.682279      4.845952
  H      11.965419    -13.794451      4.506453
  H      12.333269    -14.281080      6.149652
  H      13.516309    -12.020935      4.475770
  H      12.854624    -11.935155      6.106316
  H      15.524372    -12.084449      5.390158
  H      14.834303    -14.054728      8.823995
  H      13.806389    -14.403793      7.489202
  H      16.814563    -13.005202      8.453743
  H      16.763241    -11.706007      7.300603
  C       8.412999    -16.813004     15.233001
  C       9.864637    -17.132864     15.625340
  N      10.545012    -16.036850     16.313676
  C      10.921634    -14.903485     15.687798
  N      10.740909    -14.765126     14.378448
  N      11.441214    -13.879959     16.385315
  H       7.736528    -17.001581     16.066622
  H       8.100122    -17.463225     14.408507
  H       8.302209    -15.775759     14.907477
  H       9.899998    -17.994104     16.295641
  H      10.457268    -17.405705     14.745007
  H      10.590978    -16.053418     17.322443
  H      11.167191    -13.950502     13.870950
  H      10.442669    -15.545739     13.813957
  H      11.955162    -13.149004     15.846859
  H      11.763004    -14.054470     17.327588
  C      13.998001     -9.220000      7.724999
  O      15.301317     -9.693934      8.042895
  C      14.053903     -7.840710      7.068593
  H      13.329681     -9.174595      8.584877
  H      13.554302     -9.945670      7.031403
  H      15.554652     -9.376721      8.941391
  H      14.471180     -7.105726      7.766696
  H      14.693109     -7.866144      6.179048
  H      13.052238     -7.504759      6.772295
  C      14.518001     -6.670000     12.632999
  S      13.686984     -8.239984     13.073033
  H      14.324364     -6.427596     11.588086
  H      15.596743     -6.760051     12.782229
  H      14.119553     -5.881110     13.274335
  H      14.350061     -8.958212     12.138820
  C      20.972000     -6.019000     10.963999
  C      20.065257     -7.023995     11.693576
  C      18.779920     -7.473038     10.953066
  O      17.966360     -8.152929     11.683850
  O      18.632410     -7.206874      9.744470
  H      20.586780     -5.000259     11.007275
  H      21.066530     -6.296573      9.909507
  H      21.974090     -6.008007     11.409731
  H      20.619646     -7.953464     11.873430
  H      19.774855     -6.645532     12.681863
  C      19.312999    -20.521999      7.175001
  C      18.275401    -19.483546      7.546836
  C      16.975743    -19.546411      7.020722
  C      18.572690    -18.417425      8.405097
  C      16.013335    -18.593469      7.341634
  C      17.620556    -17.449844      8.736392
  C      16.324006    -17.536284      8.210672
  O      15.342516    -16.647456      8.498664
  H      19.761228    -20.307815      6.204785
  H      18.868083    -21.521686      7.114413
  H      20.123005    -20.553888      7.911269
  H      16.710018    -20.362527      6.352015
  H      19.571284    -18.336953      8.828981
  H      15.006213    -18.655662      6.938601
  H      17.879297    -16.625248      9.395789
  H      15.612323    -16.019118      9.216836
  C      19.522001    -11.465000      7.842998
  C      19.306993    -10.545130      9.045547
  N      19.410540    -11.280151     10.292314
  C      20.298238    -10.967793     11.276210
  O      21.207210    -10.135487     11.156982
  N      20.138874    -11.724539     12.433692
  H      19.317472    -10.958064      6.899981
  H      18.886229    -12.348851      7.919082
  H      20.560493    -11.815604      7.811662
  H      20.048010     -9.745324      9.076746
  H      18.325560    -10.056836      8.985322
  H      18.738604    -12.029180     10.452289
  H      20.597614    -11.302798     13.231034
  H      19.190878    -12.045015     12.622375
114
Coordinates from ORCA-job 02_dft_opt_cit_react E -2995.447566977711
  C      16.372096    -11.073843     12.416213
  C      15.177032    -11.275880     13.294685
  C      14.024638    -11.735785     12.770897
  C      13.866090    -11.856745     11.319735
  C      14.792441    -11.404007     10.467090
  C      16.039150    -10.717915     10.949149
  C      12.902617    -12.237239     13.645814
  O      12.979655    -12.092179     14.892456
  O      11.960284    -12.832734     13.020059
  O      15.838380     -9.308945     10.786225
  O      17.187961    -12.313815     12.492734
  C      16.564971    -13.513345     12.207041
  C      16.552544    -13.940644     10.758796
  O      17.440922    -13.470076     10.001405
  O      15.637565    -14.754725     10.397871
  C      16.054893    -14.280858     13.172973
  H      17.059379    -10.317120     12.796847
  H      15.296302    -11.199540     14.369880
  H      12.956824    -12.321857     10.960550
  H      14.641930    -11.456052      9.397703
  H      16.886507    -11.038859     10.340595
  H      16.703524     -8.802719     11.054995
  H      15.587535    -15.228134     12.933749
  H      16.085666    -13.966678     14.210677
  O      13.034379    -15.088718     11.608035
  H      13.924176    -14.854941     11.278433
  H      12.685431    -14.272264     12.018983
  C      12.785000    -13.909001      5.224001
  C      13.463371    -12.551200      5.424458
  N      14.837528    -12.603314      5.927018
  C      15.231171    -13.000947      7.148380
  N      14.457211    -13.784018      7.912402
  N      16.436070    -12.618803      7.582101
  H      13.453745    -14.682279      4.845952
  H      11.965121    -13.793467      4.506967
  H      12.335215    -14.277356      6.151905
  H      13.531720    -12.032149      4.466555
  H      12.855811    -11.927392      6.090109
  H      15.523544    -12.066390      5.414079
  H      14.831068    -14.073632      8.823680
  H      13.826257    -14.442030      7.477668
  H      16.802900    -12.997139      8.473734
  H      16.733214    -11.680141      7.341653
  C       8.412999    -16.813004     15.233001
  C       9.865984    -17.127820     15.628394
  N      10.541580    -16.027226     16.313687
  C      10.914892    -14.894561     15.685109
  N      10.743674    -14.763095     14.374021
  N      11.422493    -13.863483     16.381320
  H       7.736528    -17.001581     16.066622
  H       8.103080    -17.463641     14.407793
  H       8.301059    -15.775740     14.907257
  H       9.902299    -17.985642     16.302928
  H      10.458799    -17.402036     14.748766
  H      10.584339    -16.038643     17.322722
  H      11.159680    -13.943315     13.863802
  H      10.451249    -15.545151     13.808265
  H      11.932960    -13.131936     15.840684
  H      11.748191    -14.030592     17.323722
  C      13.998001     -9.220000      7.724999
  O      15.308128     -9.671059      8.049697
  C      14.035059     -7.846328      7.054787
  H      13.329681     -9.174595      8.584877
  H      13.564477     -9.958365      7.038513
  H      15.549108     -9.358522      8.953880
  H      14.442901     -7.099782      7.746259
  H      14.674877     -7.872145      6.165582
  H      13.028566     -7.527580      6.755683
  C      14.518001     -6.670000     12.632999
  S      13.671676     -8.234649     13.071651
  H      14.324364     -6.427596     11.588086
  H      15.596019     -6.769492     12.781144
  H      14.125310     -5.878547     13.274770
  H      14.329725     -8.954742     12.133737
  C      20.972000     -6.019000     10.963999
  C      20.063259     -7.023762     11.693340
  C      18.777452     -7.469076     10.951462
  O      17.961233     -8.147641     11.681556
  O      18.631417     -7.202409      9.742473
  H      20.586780     -5.000259     11.007275
  H      21.066015     -6.297563      9.909735
  H      21.973723     -6.009226     11.410617
  H      20.616622     -7.954415     11.870443
  H      19.772059     -6.646700     12.681792
  C      19.312999    -20.521999      7.175001
  C      18.274937    -19.484454      7.550585
  C      16.961137    -19.573700      7.064675
  C      18.585406    -18.394047      8.373860
  C      15.997060    -18.623977      7.392059
  C      17.631677    -17.429848      8.710858
  C      16.320046    -17.543875      8.227820
  O      15.337086    -16.660893      8.526996
  H      19.761228    -20.307815      6.204785
  H      18.866157    -21.520755      7.113534
  H      20.123580    -20.555746      7.910730
  H      16.685608    -20.408549      6.423563
  H      19.595069    -18.291799      8.765780
  H      14.979003    -18.705891      7.020893
  H      17.899652    -16.586013      9.341939
  H      15.614219    -16.022644      9.234548
  C      19.522001    -11.465000      7.842998
  C      19.291065    -10.550979      9.047107
  N      19.401066    -11.287264     10.292916
  C      20.291768    -10.972061     11.273647
  O      21.198902    -10.137817     11.149188
  N      20.136059    -11.726916     12.432363
  H      19.317472    -10.958064      6.899981
  H      18.890046    -12.353030      7.907892
  H      20.563399    -11.807185      7.816900
  H      20.021878     -9.742025      9.081173
  H      18.303658    -10.075301      8.984119
  H      18.732527    -12.038648     10.455863
  H      20.600687    -11.307900     13.227722
  H      19.188192    -12.044972     12.625506
114
Coordinates from ORCA-job 02_dft_opt_cit_react E -2995.447883885403
  C      16.361787    -11.072299     12.419522
  C      15.162288    -11.272183     13.293699
  C      14.012585    -11.734561     12.765563
  C      13.861320    -11.859163     11.313499
  C      14.790069    -11.403267     10.465014
  C      16.032871    -10.714919     10.952107
  C      12.888171    -12.228946     13.638927
  O      12.960116    -12.078835     14.885227
  O      11.944985    -12.826246     13.013691
  O      15.830255     -9.305670     10.788260
  O      17.176735    -12.310751     12.495694
  C      16.550704    -13.510709     12.214444
  C      16.539857    -13.945485     10.769784
  O      17.433959    -13.485566     10.011714
  O      15.622730    -14.757918     10.409940
  C      16.034096    -14.269658     13.183571
  H      17.044791    -10.313968     12.804807
  H      15.275679    -11.190024     14.369029
  H      12.954832    -12.324018     10.946966
  H      14.639403    -11.445227      9.395192
  H      16.884465    -11.030369     10.347085
  H      16.695083     -8.798744     11.049254
  H      15.557509    -15.213712     12.949628
  H      16.063906    -13.950505     14.219867
  O      13.011946    -15.094324     11.620424
  H      13.905705    -14.871461     11.293732
  H      12.668603    -14.268846     12.019242
  C      12.785000    -13.909001      5.224001
  C      13.467263    -12.552419      5.419638
  N      14.838605    -12.606081      5.932834
  C      15.226021    -13.003966      7.157592
  N      14.462515    -13.810286      7.906560
  N      16.415348    -12.595504      7.609962
  H      13.453745    -14.682279      4.845952
  H      11.962829    -13.793824      4.509591
  H      12.338369    -14.274662      6.154478
  H      13.547044    -12.042980      4.457341
  H      12.855259    -11.919566      6.072727
  H      15.519756    -12.043451      5.440886
  H      14.827217    -14.094301      8.823159
  H      13.845779    -14.476797      7.464503
  H      16.788394    -12.986087      8.493894
  H      16.698494    -11.648144      7.387135
  C       8.412999    -16.813004     15.233001
  C       9.867480    -17.117990     15.631925
  N      10.534992    -16.010966     16.314707
  C      10.904504    -14.879887     15.681687
  N      10.744916    -14.757386     14.368029
  N      11.399142    -13.839663     16.374849
  H       7.736528    -17.001581     16.066622
  H       8.108226    -17.467173     14.408700
  H       8.296908    -15.777069     14.903845
  H       9.909077    -17.973339     16.309323
  H      10.462487    -17.391055     14.753549
  H      10.567809    -16.013406     17.324264
  H      11.153835    -13.932968     13.856502
  H      10.457815    -15.543619     13.805309
  H      11.909794    -13.108625     15.833423
  H      11.722416    -14.000397     17.319351
  C      13.998001     -9.220000      7.724999
  O      15.313789     -9.650205      8.055992
  C      14.018486     -7.852210      7.042042
  H      13.329681     -9.174595      8.584877
  H      13.573943     -9.969569      7.044837
  H      15.543247     -9.341355      8.965052
  H      14.418488     -7.094716      7.726207
  H      14.657587     -7.878454      6.152199
  H      13.008051     -7.548093      6.740643
  C      14.518001     -6.670000     12.632999
  S      13.660331     -8.230637     13.073016
  H      14.324364     -6.427596     11.588086
  H      15.595444     -6.777379     12.779662
  H      14.131226     -5.875356     13.274480
  H      14.314425     -8.951434     12.131678
  C      20.972000     -6.019000     10.963999
  C      20.062430     -7.024479     11.692772
  C      18.776022     -7.464125     10.951594
  O      17.955567     -8.139377     11.681486
  O      18.629967     -7.197855      9.742007
  H      20.586780     -5.000259     11.007275
  H      21.066677     -6.298488      9.910111
  H      21.973106     -6.009528     11.412164
  H      20.614955     -7.956493     11.866096
  H      19.772986     -6.650654     12.682916
  C      19.312999    -20.521999      7.175001
  C      18.273180    -19.487718      7.555012
  C      16.947634    -19.602308      7.108532
  C      18.593520    -18.376006      8.346466
  C      15.980586    -18.657794      7.444220
  C      17.637489    -17.416867      8.691343
  C      16.313657    -17.557971      8.249292
  O      15.328145    -16.681239      8.561771
  H      19.761228    -20.307815      6.204785
  H      18.867713    -21.521448      7.112828
  H      20.124743    -20.556327      7.909675
  H      16.664822    -20.453809      6.492921
  H      19.612462    -18.253431      8.707459
  H      14.953506    -18.758829      7.104114
  H      17.911362    -16.556630      9.297398
  H      15.617350    -16.031512      9.254497
  C      19.522001    -11.465000      7.842998
  C      19.275404    -10.557855      9.049223
  N      19.391049    -11.295457     10.294139
  C      20.285433    -10.978381     11.271227
  O      21.190578    -10.141867     11.140669
  N      20.134685    -11.730420     12.431557
  H      19.317472    -10.958064      6.899981
  H      18.892643    -12.356327      7.895153
  H      20.565558    -11.800747      7.824167
  H      19.995780     -9.739823      9.086917
  H      18.282097    -10.094733      8.984481
  H      18.725466    -12.049037     10.459039
  H      20.604411    -11.312295     13.224403
  H      19.187143    -12.045976     12.630423
114
Coordinates from ORCA-job 02_dft_opt_cit_react E -2995.448181790498
  C      16.354914    -11.069756     12.424087
  C      15.152878    -11.268020     13.295996
  C      14.003761    -11.729586     12.765255
  C      13.856258    -11.855744     11.313291
  C      14.787958    -11.400316     10.467300
  C      16.028647    -10.712111     10.957438
  C      12.878714    -12.217737     13.638571
  O      12.946265    -12.062711     14.884426
  O      11.935180    -12.817475     13.014617
  O      15.824993     -9.302433     10.789422
  O      17.167930    -12.308513     12.498374
  C      16.537926    -13.508255     12.221523
  C      16.527358    -13.949548     10.780075
  O      17.425398    -13.499000     10.020627
  O      15.608638    -14.760947     10.420984
  C      16.018143    -14.260005     13.194552
  H      17.036161    -10.312161     12.814101
  H      15.263327    -11.183498     14.371323
  H      12.952736    -12.321256     10.940178
  H      14.637190    -11.436263      9.397453
  H      16.883269    -11.024497     10.355429
  H      16.688837     -8.794983     11.045970
  H      15.531960    -15.199874     12.963701
  H      16.049698    -13.936803     14.229455
  O      12.997627    -15.099921     11.629827
  H      13.894667    -14.885256     11.305700
  H      12.660099    -14.267584     12.019116
  C      12.785000    -13.909001      5.224001
  C      13.468160    -12.553039      5.415310
  N      14.837402    -12.604505      5.937966
  C      15.220192    -13.002667      7.165286
  N      14.468218    -13.830934      7.900765
  N      16.393279    -12.568690      7.635389
  H      13.453745    -14.682279      4.845952
  H      11.959674    -13.795447      4.513081
  H      12.341298    -14.273592      6.156407
  H      13.557754    -12.050731      4.449989
  H      12.851950    -11.913317      6.057904
  H      15.512179    -12.017889      5.465122
  H      14.823203    -14.112397      8.821925
  H      13.862306    -14.501309      7.449819
  H      16.772451    -12.972407      8.510194
  H      16.662208    -11.613396      7.429163
  C       8.412999    -16.813004     15.233001
  C       9.868302    -17.106370     15.635219
  N      10.526654    -15.992983     16.316925
  C      10.892891    -14.863711     15.679001
  N      10.744421    -14.750152     14.362777
  N      11.376239    -13.815345     16.368802
  H       7.736528    -17.001581     16.066622
  H       8.114012    -17.473549     14.411626
  H       8.290812    -15.779730     14.897519
  H       9.917544    -17.961024     16.313141
  H      10.467632    -17.376312     14.758870
  H      10.544168    -15.985063     17.326916
  H      11.150760    -13.922608     13.852131
  H      10.460331    -15.542024     13.806714
  H      11.890889    -13.085850     15.828438
  H      11.690626    -13.973150     17.316891
  C      13.998001     -9.220000      7.724999
  O      15.317975     -9.634429      8.060330
  C      14.005975     -7.857888      7.031384
  H      13.329681     -9.174595      8.584877
  H      13.581017     -9.978418      7.050206
  H      15.538221     -9.327238      8.972501
  H      14.400020     -7.090695      7.708119
  H      14.643433     -7.884875      6.140299
  H      12.992911     -7.564454      6.727900
  C      14.518001     -6.670000     12.632999
  S      13.656009     -8.227944     13.077748
  H      14.324364     -6.427596     11.588086
  H      15.595222     -6.781913     12.777949
  H      14.136433     -5.871954     13.273416
  H      14.306686     -8.949244     12.134640
  C      20.972000     -6.019000     10.963999
  C      20.063192     -7.025802     11.691948
  C      18.775865     -7.460224     10.953551
  O      17.950920     -8.130058     11.684295
  O      18.629525     -7.197265      9.742831
  H      20.586780     -5.000259     11.007275
  H      21.068395     -6.298725      9.910424
  H      21.972512     -6.008665     11.413688
  H      20.615029     -7.958984     11.862196
  H      19.777877     -6.655580     12.684708
  C      19.312999    -20.521999      7.175001
  C      18.270654    -19.492882      7.559571
  C      16.937302    -19.628228      7.145025
  C      18.596200    -18.366392      8.328423
  C      15.966604    -18.690335      7.489690
  C      17.637641    -17.413205      8.682024
  C      16.306178    -17.576587      8.271752
  O      15.317315    -16.705737      8.596884
  H      19.761228    -20.307815      6.204785
  H      18.872557    -21.523618      7.112603
  H      20.126400    -20.555412      7.908143
  H      16.650488    -20.491866      6.548438
  H      19.621482    -18.228173      8.665048
  H      14.933491    -18.808109      7.175036
  H      17.913878    -16.541908      9.270854
  H      15.620472    -16.044240      9.272172
  C      19.522001    -11.465000      7.842998
  C      19.261421    -10.565038      9.051444
  N      19.380610    -11.303996     10.295477
  C      20.278372    -10.986592     11.269370
  O      21.182238    -10.148783     11.133912
  N      20.132320    -11.735914     12.431313
  H      19.317472    -10.958064      6.899981
  H      18.893887    -12.358419      7.882557
  H      20.566746    -11.796852      7.832570
  H      19.972063     -9.738797      9.093830
  H      18.262983    -10.112885      8.986142
  H      18.717156    -12.059506     10.460846
  H      20.605534    -11.316699     13.221531
  H      19.185100    -12.048890     12.636008
114
Coordinates from ORCA-job 02_dft_opt_cit_react E -2995.448429098131
  C      16.350619    -11.065709     12.428911
  C      15.148423    -11.262978     13.300609
  C      13.997883    -11.720730     12.769360
  C      13.849883    -11.845504     11.318271
  C      14.784303    -11.393845     10.472599
  C      16.025484    -10.708308     10.963610
  C      12.872831    -12.205429     13.643380
  O      12.938736    -12.047777     14.888923
  O      11.929358    -12.806052     13.020443
  O      15.821961     -9.298239     10.791511
  O      17.160888    -12.306963     12.500030
  C      16.526639    -13.505537     12.227291
  C      16.516018    -13.952436     10.787919
  O      17.416716    -13.510013     10.027045
  O      15.595750    -14.762818     10.429738
  C      16.006846    -14.252722     13.203924
  H      17.033950    -10.311444     12.821805
  H      15.259065    -11.180154     14.375937
  H      12.948056    -12.311723     10.941778
  H      14.633807    -11.429399      9.402911
  H      16.881769    -11.019994     10.363516
  H      16.685696     -8.791404     11.047311
  H      15.514131    -15.189180     12.973588
  H      16.041606    -13.926796     14.237658
  O      12.990822    -15.099601     11.633299
  H      13.890105    -14.890010     11.310953
  H      12.657907    -14.263946     12.017798
  C      12.785000    -13.909001      5.224001
  C      13.466441    -12.552810      5.412271
  N      14.834102    -12.598415      5.942924
  C      15.213919    -12.997335      7.171574
  N      14.473252    -13.845344      7.895401
  N      16.372306    -12.542360      7.656989
  H      13.453745    -14.682279      4.845952
  H      11.957729    -13.797211      4.515168
  H      12.342328    -14.273504      6.156999
  H      13.562906    -12.054925      4.445214
  H      12.846527    -11.908956      6.047358
  H      15.502282    -11.992977      5.484325
  H      14.819784    -14.125988      8.820100
  H      13.877099    -14.517263      7.434062
  H      16.757002    -12.957298      8.522817
  H      16.625844    -11.579665      7.464884
  C       8.412999    -16.813004     15.233001
  C       9.868222    -17.097370     15.637424
  N      10.519743    -15.979757     16.319336
  C      10.883674    -14.851432     15.677830
  N      10.743321    -14.744384     14.359936
  N      11.359007    -13.798094     16.365972
  H       7.736528    -17.001581     16.066622
  H       8.118189    -17.480461     14.415618
  H       8.285199    -15.782748     14.890701
  H       9.923736    -17.952772     16.314121
  H      10.472425    -17.364176     14.763437
  H      10.521300    -15.963419     17.329424
  H      11.149639    -13.915106     13.851926
  H      10.459561    -15.540687     13.810460
  H      11.879016    -13.070289     15.827906
  H      11.662319    -13.956487     17.317568
  C      13.998001     -9.220000      7.724999
  O      15.321451     -9.622296      8.062925
  C      13.995975     -7.863716      7.021473
  H      13.329681     -9.174595      8.584877
  H      13.585842     -9.986305      7.055863
  H      15.534181     -9.315304      8.976788
  H      14.384421     -7.087315      7.690766
  H      14.632056     -7.892173      6.129463
  H      12.981078     -7.579212      6.715537
  C      14.518001     -6.670000     12.632999
  S      13.656220     -8.224931     13.084332
  H      14.324364     -6.427596     11.588086
  H      15.595268     -6.784049     12.776120
  H      14.141062     -5.868708     13.272108
  H      14.302717     -8.948329     12.141613
  C      20.972000     -6.019000     10.963999
  C      20.064758     -7.026810     11.691203
  C      18.776454     -7.459317     10.955876
  O      17.948072     -8.122308     11.688619
  O      18.631148     -7.202346      9.743616
  H      20.586780     -5.000259     11.007275
  H      21.070255     -6.298088      9.910477
  H      21.972219     -6.007250     11.414434
  H      20.615975     -7.960658     11.860743
  H      19.783713     -6.658368     12.685980
  C      19.312999    -20.521999      7.175001
  C      18.268519    -19.497885      7.563535
  C      16.929765    -19.650266      7.174995
  C      18.596867    -18.360615      8.315253
  C      15.955927    -18.718804      7.528044
  C      17.636189    -17.412898      8.676685
  C      16.299813    -17.594434      8.291878
  O      15.307621    -16.729199      8.627628
  H      19.761228    -20.307815      6.204785
  H      18.877939    -21.525957      7.113015
  H      20.128133    -20.553820      7.906485
  H      16.640434    -20.523212      6.593412
  H      19.626660    -18.210219      8.632263
  H      14.918573    -18.851731      7.234914
  H      17.913863    -16.533390      9.252295
  H      15.622556    -16.056402      9.285359
  C      19.522001    -11.465000      7.842998
  C      19.248135    -10.571953      9.053112
  N      19.368881    -11.312303     10.296139
  C      20.268923    -10.995613     11.267939
  O      21.172647    -10.158155     11.130248
  N      20.125958    -11.743485     12.431103
  H      19.317472    -10.958064      6.899981
  H      18.895086    -12.360200      7.871088
  H      20.567628    -11.793451      7.840939
  H      19.949331     -9.737978      9.101262
  H      18.245277    -10.129653      8.987454
  H      18.707070    -12.069857     10.460930
  H      20.601497    -11.322321     13.218920
  H      19.178814    -12.053544     12.640672
114
Coordinates from ORCA-job 02_dft_opt_cit_react E -2995.448636857463
  C      16.348079    -11.061157     12.434024
  C      15.147575    -11.257733     13.307035
  C      13.994601    -11.710479     12.777029
  C      13.842967    -11.831948     11.326967
  C      14.779337    -11.385952     10.479828
  C      16.022978    -10.704192     10.969847
  C      12.869946    -12.195545     13.652020
  O      12.937092    -12.037794     14.897475
  O      11.927284    -12.795988     13.029540
  O      15.820915     -9.293933     10.794892
  O      17.155471    -12.306161     12.501046
  C      16.517079    -13.502861     12.231768
  C      16.506228    -13.954221     10.793212
  O      17.408672    -13.518274     10.031270
  O      15.584176    -14.763312     10.436395
  C      15.998480    -14.247672     13.211027
  H      17.036176    -10.311389     12.827122
  H      15.260599    -11.179153     14.382392
  H      12.940446    -12.297543     10.951060
  H      14.629611    -11.425247      9.410366
  H      16.879599    -11.016787     10.370792
  H      16.685318     -8.788591     11.053233
  H      15.501895    -15.181795     12.980027
  H      16.037035    -13.920191     14.243910
  O      12.989377    -15.095400     11.632814
  H      13.889829    -14.888947     11.310748
  H      12.659709    -14.259215     12.016808
  C      12.785000    -13.909001      5.224001
  C      13.463254    -12.551969      5.410722
  N      14.829338    -12.589954      5.948409
  C      15.207146    -12.990238      7.177539
  N      14.477542    -13.856845      7.890383
  N      16.352701    -12.517998      7.675769
  H      13.453745    -14.682279      4.845952
  H      11.957728    -13.798366      4.515030
  H      12.341624    -14.273665      6.156564
  H      13.563963    -12.056803      4.442652
  H      12.839684    -11.906358      6.040501
  H      15.491139    -11.969773      5.500228
  H      14.816977    -14.136894      8.817971
  H      13.890319    -14.529032      7.418343
  H      16.743122    -12.941086      8.533942
  H      16.589256    -11.548468      7.494360
  C       8.412999    -16.813004     15.233001
  C       9.867523    -17.094514     15.637846
  N      10.517437    -15.976303     16.320724
  C      10.879761    -14.847512     15.677884
  N      10.744205    -14.743659     14.359413
  N      11.350055    -13.792576     16.366876
  H       7.736528    -17.001581     16.066622
  H       8.119047    -17.484778     14.418749
  H       8.282587    -15.784667     14.886475
  H       9.925321    -17.951504     16.312511
  H      10.474919    -17.359744     14.765544
  H      10.504029    -15.954074     17.330656
  H      11.151524    -13.913387     13.855072
  H      10.460444    -15.542059     13.813314
  H      11.874866    -13.065720     15.831945
  H      11.643577    -13.953104     17.321121
  C      13.998001     -9.220000      7.724999
  O      15.323886     -9.613755      8.064804
  C      13.988917     -7.868708      7.013419
  H      13.329681     -9.174595      8.584877
  H      13.588927     -9.992670      7.061153
  H      15.530890     -9.306053      8.979468
  H      14.372254     -7.084936      7.676874
  H      14.624781     -7.898952      6.121397
  H      12.972851     -7.591423      6.704934
  C      14.518001     -6.670000     12.632999
  S      13.658215     -8.221533     13.090424
  H      14.324364     -6.427596     11.588086
  H      15.595452     -6.784214     12.774893
  H      14.144100     -5.866306     13.270863
  H      14.301845     -8.948826     12.150879
  C      20.972000     -6.019000     10.963999
  C      20.066343     -7.027005     11.691271
  C      18.776771     -7.461106     10.958536
  O      17.946614     -8.117006     11.694324
  O      18.633979     -7.211728      9.744551
  H      20.586780     -5.000259     11.007275
  H      21.071095     -6.297125      9.910283
  H      21.972442     -6.006024     11.413905
  H      20.617229     -7.960956     11.861671
  H      19.788504     -6.658126     12.686896
  C      19.312999    -20.521999      7.175001
  C      18.267349    -19.501531      7.566843
  C      16.924677    -19.667413      7.199235
  C      18.597572    -18.356353      8.305223
  C      15.948783    -18.741292      7.559680
  C      17.635289    -17.413316      8.673460
  C      16.295415    -17.608698      8.309466
  O      15.300939    -16.748805      8.654341
  H      19.761228    -20.307815      6.204785
  H      18.881637    -21.527503      7.113926
  H      20.129595    -20.552386      7.905044
  H      16.633531    -20.547268      6.629211
  H      19.630663    -18.196601      8.606390
  H      14.908520    -18.887119      7.284146
  H      17.914510    -16.527687      9.238736
  H      15.624383    -16.065341      9.296009
  C      19.522001    -11.465000      7.842998
  C      19.236123    -10.577771      9.053727
  N      19.356624    -11.319481     10.296000
  C      20.257862    -11.004346     11.266900
  O      21.162366    -10.168461     11.129549
  N      20.116313    -11.752825     12.430458
  H      19.317472    -10.958064      6.899981
  H      18.896631    -12.361825      7.861791
  H      20.568545    -11.789670      7.847861
  H      19.929054     -9.737220      9.107817
  H      18.229932    -10.143522      8.986557
  H      18.696213    -12.079060     10.459261
  H      20.593858    -11.330230     13.216340
  H      19.168906    -12.059654     12.643622
114
Coordinates from ORCA-job 02_dft_opt_cit_react E -2995.448835970638
  C      16.345382    -11.057071     12.439618
  C      15.147562    -11.252563     13.314926
  C      13.991588    -11.699590     12.787183
  C      13.834666    -11.816882     11.337819
  C      14.772306    -11.377718     10.488197
  C      16.019584    -10.700007     10.976100
  C      12.867626    -12.188091     13.663164
  O      12.938497    -12.032788     14.908809
  O      11.925880    -12.787398     13.040735
  O      15.820641     -9.289538     10.799932
  O      17.149676    -12.306367     12.501625
  C      16.506951    -13.500572     12.235123
  C      16.496128    -13.955551     10.796660
  O      17.400380    -13.525697     10.033971
  O      15.571844    -14.762726     10.441428
  C      15.988198    -14.243741     13.215793
  H      17.039615    -10.311990     12.830687
  H      15.264187    -11.179441     14.390313
  H      12.928606    -12.279067     10.965952
  H      14.623811    -11.423188      9.418899
  H      16.875844    -11.014064     10.377585
  H      16.686270     -8.786631     11.063003
  H      15.488697    -15.176166     12.984407
  H      16.030400    -13.915324     14.248103
  O      12.987397    -15.087997     11.630255
  H      13.888397    -14.884472     11.306870
  H      12.660702    -14.252611     12.016623
  C      12.785000    -13.909001      5.224001
  C      13.459872    -12.550592      5.409991
  N      14.823790    -12.580243      5.955278
  C      15.199734    -12.982725      7.184540
  N      14.482423    -13.869762      7.884460
  N      16.332273    -12.492811      7.695202
  H      13.453745    -14.682279      4.845952
  H      11.959190    -13.798872      4.513221
  H      12.340281    -14.273410      6.155892
  H      13.563893    -12.058152      4.440869
  H      12.831890    -11.904325      6.034668
  H      15.479158    -11.946594      5.516497
  H      14.814909    -14.148035      8.814965
  H      13.905787    -14.542946      7.401201
  H      16.729584    -12.922173      8.546612
  H      16.547990    -11.515909      7.524275
  C       8.412999    -16.813004     15.233001
  C       9.866704    -17.097960     15.636341
  N      10.520547    -15.982742     16.320549
  C      10.881250    -14.851965     15.678680
  N      10.747918    -14.747987     14.360483
  N      11.348422    -13.797901     16.370707
  H       7.736528    -17.001581     16.066622
  H       8.116555    -17.485193     14.419915
  H       8.283512    -15.784829     14.886083
  H       9.922695    -17.956878     16.308799
  H      10.474456    -17.363369     14.764331
  H      10.493240    -15.956465     17.330174
  H      11.155664    -13.916396     13.860317
  H      10.465288    -15.545931     13.813297
  H      11.876465    -13.070720     15.839483
  H      11.635246    -13.960479     17.326567
  C      13.998001     -9.220000      7.724999
  O      15.325847     -9.605975      8.067689
  C      13.982986     -7.873255      7.005916
  H      13.329681     -9.174595      8.584877
  H      13.591482     -9.998682      7.066533
  H      15.527442     -9.297677      8.983205
  H      14.360993     -7.083211      7.664840
  H      14.620016     -7.905604      6.114904
  H      12.965897     -7.603238      6.694676
  C      14.518001     -6.670000     12.632999
  S      13.657661     -8.216795     13.095344
  H      14.324364     -6.427596     11.588086
  H      15.595549     -6.784762     12.774011
  H      14.146829     -5.864252     13.269908
  H      14.300192     -8.950474     12.161709
  C      20.972000     -6.019000     10.963999
  C      20.067412     -7.026322     11.692605
  C      18.776347     -7.464462     10.961817
  O      17.945741     -8.113747     11.701417
  O      18.636779     -7.223030      9.746155
  H      20.586780     -5.000259     11.007275
  H      21.070326     -6.296460      9.909964
  H      21.973180     -6.005436     11.412137
  H      20.618374     -7.959985     11.864526
  H      19.791277     -6.655194     12.687893
  C      19.312999    -20.521999      7.175001
  C      18.266826    -19.503823      7.569911
  C      16.920155    -19.682976      7.224022
  C      18.599449    -18.350177      8.293339
  C      15.943065    -18.761241      7.591560
  C      17.635829    -17.411386      8.667990
  C      16.292204    -17.619772      8.326482
  O      15.296726    -16.765448      8.680425
  H      19.761228    -20.307815      6.204785
  H      18.882999    -21.528008      7.115012
  H      20.130700    -20.551539      7.903950
  H      16.626902    -20.569868      6.666258
  H      19.635719    -18.180839      8.577760
  H      14.900017    -18.919513      7.333946
  H      17.917456    -16.519168      9.221645
  H      15.626174    -16.070437      9.306090
  C      19.522001    -11.465000      7.842998
  C      19.223357    -10.582951      9.053415
  N      19.342480    -11.326128     10.295007
  C      20.244379    -11.013099     11.265754
  O      21.149878    -10.178891     11.130381
  N      20.103706    -11.764370     12.428654
  H      19.317472    -10.958064      6.899981
  H      18.899151    -12.364040      7.853255
  H      20.569994    -11.784167      7.853740
  H      19.908231     -9.736196      9.113835
  H      18.214211    -10.156467      8.982577
  H      18.683694    -12.088078     10.455750
  H      20.583783    -11.341470     13.212911
  H      19.155759    -12.067469     12.644766
114
Coordinates from ORCA-job 02_dft_opt_cit_react E -2995.449030439330
  C      16.342906    -11.055036     12.445974
  C      15.148406    -11.248734     13.324774
  C      13.988920    -11.689511     12.800160
  C      13.825722    -11.802588     11.350974
  C      14.763950    -11.370957     10.498081
  C      16.015512    -10.697148     10.982753
  C      12.866865    -12.184362     13.677426
  O      12.943175    -12.034095     14.923559
  O      11.925859    -12.782479     13.054951
  O      15.821774     -9.286214     10.806317
  O      17.143918    -12.308520     12.502340
  C      16.496836    -13.499883     12.236908
  C      16.486008    -13.956686     10.797912
  O      17.391793    -13.531136     10.034908
  O      15.559357    -14.761804     10.444054
  C      15.975420    -14.241528     13.217591
  H      17.043411    -10.314011     12.833418
  H      15.269813    -11.181687     14.400116
  H      12.913203    -12.258036     10.986281
  H      14.616920    -11.424293      9.428980
  H      16.870631    -11.013159     10.384342
  H      16.688539     -8.786365     11.076198
  H      15.472710    -15.172413     12.987016
  H      16.020878    -13.912757     14.249664
  O      12.983227    -15.080603     11.627252
  H      13.883784    -14.879576     11.300521
  H      12.659800    -14.246873     12.018614
  C      12.785000    -13.909001      5.224001
  C      13.456446    -12.548956      5.409774
  N      14.817780    -12.570771      5.962310
  C      15.192347    -12.976734      7.191278
  N      14.488342    -13.884901      7.877188
  N      16.311625    -12.468478      7.713340
  H      13.453745    -14.682279      4.845952
  H      11.961042    -13.799181      4.510948
  H      12.339540    -14.272836      6.155620
  H      13.562664    -12.059031      4.439633
  H      12.823171    -11.903460      6.029850
  H      15.467099    -11.925016      5.532187
  H      14.814058    -14.160381      8.811005
  H      13.922208    -14.559458      7.383826
  H      16.716770    -12.901470      8.559295
  H      16.503022    -11.484103      7.552226
  C       8.412999    -16.813004     15.233001
  C       9.865863    -17.107927     15.632714
  N      10.529353    -15.999600     16.318956
  C      10.888378    -14.865427     15.680608
  N      10.754461    -14.757469     14.363365
  N      11.354972    -13.814436     16.377142
  H       7.736528    -17.001581     16.066622
  H       8.110890    -17.480596     14.418172
  H       8.288396    -15.782813     14.890424
  H       9.916493    -17.969173     16.302628
  H      10.470411    -17.374720     14.758976
  H      10.489598    -15.970938     17.328229
  H      11.162578    -13.924183     13.867620
  H      10.474886    -15.552720     13.810662
  H      11.884522    -13.085389     15.850173
  H      11.638501    -13.978431     17.333696
  C      13.998001     -9.220000      7.724999
  O      15.326501     -9.601127      8.072014
  C      13.980357     -7.876001      7.001201
  H      13.329681     -9.174595      8.584877
  H      13.593175    -10.002468      7.070197
  H      15.524171     -9.292223      8.988286
  H      14.354347     -7.082618      7.658342
  H      14.619787     -7.910176      6.112049
  H      12.962818     -7.611014      6.687420
  C      14.518001     -6.670000     12.632999
  S      13.653625     -8.211430     13.098909
  H      14.324364     -6.427596     11.588086
  H      15.595497     -6.786196     12.773514
  H      14.149311     -5.862492     13.269235
  H      14.298844     -8.953361     12.174288
  C      20.972000     -6.019000     10.963999
  C      20.068013     -7.024910     11.695515
  C      18.775245     -7.467850     10.966665
  O      17.945812     -8.112925     11.710371
  O      18.637293     -7.232413      9.749941
  H      20.586780     -5.000259     11.007275
  H      21.067770     -6.296693      9.909699
  H      21.974351     -6.005576     11.409354
  H      20.619686     -7.957840     11.868550
  H      19.792499     -6.650729     12.689754
  C      19.312999    -20.521999      7.175001
  C      18.266691    -19.505007      7.572688
  C      16.916728    -19.695315      7.245618
  C      18.601406    -18.344106      8.283038
  C      15.938923    -18.777041      7.619272
  C      17.636476    -17.409142      8.663446
  C      16.289517    -17.627832      8.341844
  O      15.294219    -16.778378      8.703705
  H      19.761228    -20.307815      6.204785
  H      18.882264    -21.527637      7.115851
  H      20.131313    -20.551442      7.903364
  H      16.621860    -20.588001      6.698140
  H      19.640146    -18.166279      8.552846
  H      14.893845    -18.945372      7.376365
  H      17.920300    -16.511430      9.207244
  H      15.627306    -16.072218      9.315104
  C      19.522001    -11.465000      7.842998
  C      19.211828    -10.586647      9.052255
  N      19.328007    -11.331127     10.293686
  C      20.230245    -11.021067     11.264987
  O      21.136420    -10.187716     11.132659
  N      20.090634    -11.777223     12.425925
  H      19.317472    -10.958064      6.899981
  H      18.902257    -12.366493      7.846971
  H      20.571702    -11.778045      7.857588
  H      19.890566     -9.735396      9.118480
  H      18.200693    -10.166081      8.975256
  H      18.670793    -12.095397     10.450473
  H      20.573371    -11.355163     13.209129
  H      19.141950    -12.076657     12.644188
114
Coordinates from ORCA-job 02_dft_opt_cit_react E -2995.449206106605
  C      16.338718    -11.055496     12.451491
  C      15.146767    -11.246340     13.333821
  C      13.983831    -11.680764     12.811818
  C      13.815658    -11.790598     11.362273
  C      14.754090    -11.365586     10.506667
  C      16.009545    -10.695335     10.988466
  C      12.864132    -12.181965     13.690052
  O      12.945951    -12.038752     14.936871
  O      11.922448    -12.778077     13.067337
  O      15.822314     -9.283482     10.813484
  O      17.135928    -12.312375     12.503056
  C      16.484794    -13.500854     12.236798
  C      16.475040    -13.958017     10.797468
  O      17.382949    -13.536335     10.034542
  O      15.546209    -14.760814     10.443775
  C      15.957136    -14.240177     13.216105
  H      17.044097    -10.317395     12.835626
  H      15.272636    -11.184608     14.409074
  H      12.895685    -12.237100     11.005272
  H      14.607993    -11.426272      9.437700
  H      16.863814    -11.012785     10.390060
  H      16.690457     -8.787395     11.089109
  H      15.451033    -15.169817     12.987682
  H      16.003703    -13.911100     14.248189
  O      12.970766    -15.071920     11.623677
  H      13.870482    -14.873365     11.292861
  H      12.651574    -14.239381     12.020794
  C      12.785000    -13.909001      5.224001
  C      13.454493    -12.547256      5.408726
  N      14.813188    -12.563036      5.967627
  C      15.186792    -12.973399      7.196020
  N      14.496460    -13.902034      7.867534
  N      16.292477    -12.446429      7.729335
  H      13.453745    -14.682279      4.845952
  H      11.961843    -13.799755      4.509856
  H      12.340532    -14.271496      6.156498
  H      13.562766    -12.060496      4.437226
  H      12.815922    -11.902462      6.024161
  H      15.457507    -11.906814      5.545809
  H      14.815474    -14.172938      8.805042
  H      13.943097    -14.581025      7.366023
  H      16.704782    -12.881348      8.571063
  H      16.457389    -11.454374      7.581181
  C       8.412999    -16.813004     15.233001
  C       9.865385    -17.119999     15.628067
  N      10.540294    -16.019779     16.316447
  C      10.897494    -14.881710     15.683038
  N      10.761281    -14.767255     14.366907
  N      11.365116    -13.834385     16.383938
  H       7.736528    -17.001581     16.066622
  H       8.104597    -17.472909     14.414300
  H       8.294986    -15.779608     14.897559
  H       9.909894    -17.983212     16.295801
  H      10.464376    -17.388241     14.751109
  H      10.492875    -15.990737     17.325533
  H      11.167999    -13.931594     13.874571
  H      10.485865    -15.558496     13.806206
  H      11.893641    -13.102240     15.860527
  H      11.649459    -13.998577     17.340231
  C      13.998001     -9.220000      7.724999
  O      15.326964     -9.595862      8.077990
  C      13.978478     -7.878152      6.997047
  H      13.329681     -9.174595      8.584877
  H      13.594993    -10.005737      7.072991
  H      15.520650     -9.287531      8.995615
  H      14.348937     -7.082487      7.653447
  H      14.620825     -7.914030      6.110067
  H      12.960581     -7.617822      6.680695
  C      14.518001     -6.670000     12.632999
  S      13.643211     -8.204765     13.101087
  H      14.324364     -6.427596     11.588086
  H      15.595029     -6.791649     12.772541
  H      14.153979     -5.860195     13.269155
  H      14.292202     -8.956194     12.186224
  C      20.972000     -6.019000     10.963999
  C      20.067850     -7.023415     11.698785
  C      18.774007     -7.469682     10.971213
  O      17.946714     -8.114517     11.717865
  O      18.634946     -7.236060      9.754424
  H      20.586780     -5.000259     11.007275
  H      21.064539     -6.297827      9.909655
  H      21.975389     -6.006408     11.406882
  H      20.620516     -7.955606     11.872447
  H      19.791624     -6.646637     12.691712
  C      19.312999    -20.521999      7.175001
  C      18.266394    -19.505432      7.574782
  C      16.913013    -19.707429      7.268228
  C      18.603548    -18.335171      8.268547
  C      15.934687    -18.791355      7.646218
  C      17.637462    -17.402953      8.652938
  C      16.286987    -17.632633      8.353044
  O      15.292244    -16.786939      8.720451
  H      19.761228    -20.307815      6.204785
  H      18.880261    -21.526737      7.115949
  H      20.131394    -20.552122      7.903345
  H      16.616365    -20.607379      6.733754
  H      19.644640    -18.147616      8.522320
  H      14.887341    -18.968732      7.418889
  H      17.923406    -16.498049      9.183868
  H      15.626260    -16.070802      9.320251
  C      19.522001    -11.465000      7.842998
  C      19.200381    -10.589443      9.051022
  N      19.313240    -11.334901     10.292233
  C      20.215936    -11.027816     11.264139
  O      21.121744    -10.193533     11.134528
  N      20.078285    -11.789434     12.422332
  H      19.317472    -10.958064      6.899981
  H      18.906339    -12.369803      7.841648
  H      20.573769    -11.771051      7.860181
  H      19.873857     -9.734488      9.122383
  H      18.187383    -10.174724      8.966585
  H      18.657717    -12.101684     10.444554
  H      20.563667    -11.369160     13.205001
  H      19.128869    -12.085584     12.642274
114
Coordinates from ORCA-job 02_dft_opt_cit_react E -2995.449360266614
  C      16.335778    -11.058855     12.457311
  C      15.146024    -11.246305     13.343693
  C      13.979830    -11.675029     12.824327
  C      13.807368    -11.782719     11.374317
  C      14.745696    -11.363365     10.516028
  C      16.004560    -10.696472     10.994550
  C      12.864169    -12.183199     13.703751
  O      12.949883    -12.047517     14.951276
  O      11.922109    -12.779081     13.080711
  O      15.824736     -9.283496     10.819989
  O      17.129081    -12.318176     12.505499
  C      16.474483    -13.504112     12.235579
  C      16.465512    -13.959005     10.795582
  O      17.374270    -13.536958     10.033454
  O      15.535247    -14.760451     10.441119
  C      15.939127    -14.240984     13.212625
  H      17.044340    -10.322449     12.838913
  H      15.276658    -11.189218     14.418718
  H      12.880105    -12.220204     11.024896
  H      14.599669    -11.430972      9.447523
  H      16.857429    -11.016162     10.396297
  H      16.693487     -8.790652     11.101171
  H      15.428888    -15.168998     12.987076
  H      15.985654    -13.912048     14.244966
  O      12.957316    -15.068990     11.621734
  H      13.854940    -14.871132     11.285721
  H      12.642711    -14.237751     12.025521
  C      12.785000    -13.909001      5.224001
  C      13.451902    -12.545920      5.406857
  N      14.808720    -12.557674      5.968711
  C      15.182316    -12.973098      7.195981
  N      14.505040    -13.918872      7.856137
  N      16.275555    -12.429458      7.737774
  H      13.453745    -14.682279      4.845952
  H      11.960691    -13.801545      4.510879
  H      12.343682    -14.270323      6.158433
  H      13.560115    -12.060979      4.434444
  H      12.808661    -11.903439      6.020054
  H      15.449083    -11.892983      5.554068
  H      14.818114    -14.185296      8.797678
  H      13.960528    -14.601835      7.350477
  H      16.693744    -12.863254      8.577209
  H      16.413897    -11.430848      7.600615
  C       8.412999    -16.813004     15.233001
  C       9.864619    -17.133985     15.622867
  N      10.552073    -16.043052     16.314152
  C      10.908023    -14.901218     15.686646
  N      10.768408    -14.778841     14.371597
  N      11.378304    -13.857847     16.391182
  H       7.736528    -17.001581     16.066622
  H       8.098137    -17.462808     14.408773
  H       8.303138    -15.775670     14.906609
  H       9.903159    -17.999413     16.287990
  H      10.456948    -17.403070     14.741839
  H      10.499982    -16.014934     17.323193
  H      11.174820    -13.941367     13.882065
  H      10.499417    -15.566902     13.803029
  H      11.904800    -13.121857     15.871225
  H      11.663831    -14.021589     17.347251
  C      13.998001     -9.220000      7.724999
  O      15.325168     -9.597787      8.083697
  C      13.983038     -7.876680      6.999300
  H      13.329681     -9.174595      8.584877
  H      13.595655    -10.003903      7.071009
  H      15.518316     -9.289235      9.001811
  H      14.353614     -7.083712      7.658948
  H      14.628281     -7.912774      6.114389
  H      12.966164     -7.614640      6.681130
  C      14.518001     -6.670000     12.632999
  S      13.632053     -8.199390     13.102393
  H      14.324364     -6.427596     11.588086
  H      15.594367     -6.798016     12.771844
  H      14.158529     -5.858143     13.269216
  H      14.288995     -8.958941     12.198832
  C      20.972000     -6.019000     10.963999
  C      20.067985     -7.022483     11.701982
  C      18.773630     -7.470166     10.976121
  O      17.949289     -8.118187     11.724779
  O      18.630106     -7.234998      9.760152
  H      20.586780     -5.000259     11.007275
  H      21.061505     -6.299685      9.909882
  H      21.976151     -6.007233     11.405083
  H      20.622121     -7.953620     11.875161
  H      19.790997     -6.644697     12.694179
  C      19.312999    -20.521999      7.175001
  C      18.265852    -19.505881      7.576072
  C      16.911247    -19.713773      7.278667
  C      18.603283    -18.331254      8.262751
  C      15.931952    -18.799233      7.658226
  C      17.635833    -17.401025      8.649130
  C      16.283836    -17.635817      8.358318
  O      15.289301    -16.791385      8.727137
  H      19.761228    -20.307815      6.204785
  H      18.878660    -21.526080      7.115334
  H      20.131082    -20.553019      7.903722
  H      16.614702    -20.617099      6.749767
  H      19.645077    -18.138290      8.509643
  H      14.884010    -18.980423      7.436671
  H      17.921678    -16.493055      9.175119
  H      15.622816    -16.069728      9.321606
  C      19.522001    -11.465000      7.842998
  C      19.194907    -10.589564      9.049626
  N      19.302357    -11.334974     10.291911
  C      20.205443    -11.031989     11.264822
  O      21.110290    -10.195709     11.137878
  N      20.069782    -11.799187     12.419627
  H      19.317472    -10.958064      6.899981
  H      18.909466    -12.371792      7.841737
  H      20.575048    -11.767117      7.859430
  H      19.867917     -9.734541      9.123740
  H      18.182009    -10.176033      8.957111
  H      18.647606    -12.103202     10.438728
  H      20.556469    -11.381131     13.202804
  H      19.119617    -12.093208     12.640025
114
Coordinates from ORCA-job 02_dft_opt_cit_react E -2995.449523653123
  C      16.326267    -11.062417     12.461569
  C      15.136406    -11.244922     13.349857
  C      13.967669    -11.667568     12.830666
  C      13.794266    -11.773560     11.380171
  C      14.733180    -11.358258     10.521480
  C      15.994723    -10.695733     10.999336
  C      12.854050    -12.178538     13.709696
  O      12.941732    -12.050445     14.957815
  O      11.909873    -12.772192     13.085528
  O      15.822081     -9.281318     10.827561
  O      17.113533    -12.324249     12.507922
  C      16.454569    -13.507148     12.234413
  C      16.449505    -13.961133     10.795343
  O      17.361718    -13.544276     10.033633
  O      15.517747    -14.759178     10.437773
  C      15.907864    -14.239495     13.208513
  H      17.037061    -10.328188     12.843406
  H      15.269338    -11.190975     14.424799
  H      12.862028    -12.202604     11.034326
  H      14.585578    -11.429693      9.453200
  H      16.848478    -11.016069     10.402457
  H      16.693213     -8.792912     11.108352
  H      15.392885    -15.165609     12.985271
  H      15.950729    -13.909888     14.240988
  O      12.927638    -15.060633     11.617114
  H      13.824814    -14.866347     11.277286
  H      12.620408    -14.228003     12.025120
  C      12.785000    -13.909001      5.224001
  C      13.452003    -12.543815      5.401398
  N      14.806857    -12.549757      5.968905
  C      15.180114    -12.969579      7.195904
  N      14.523216    -13.940960      7.837216
  N      16.253252    -12.399543      7.754447
  H      13.453745    -14.682279      4.845952
  H      11.957611    -13.804246      4.514068
  H      12.348725    -14.267257      6.161904
  H      13.563592    -12.064871      4.426335
  H      12.803987    -11.899702      6.007960
  H      15.439457    -11.869168      5.568052
  H      14.825232    -14.199425      8.783760
  H      14.000814    -14.635253      7.323788
  H      16.676914    -12.838233      8.588435
  H      16.356489    -11.391641      7.646770
  C       8.412999    -16.813004     15.233001
  C       9.864469    -17.142832     15.618905
  N      10.559595    -16.057513     16.311978
  C      10.913432    -14.912890     15.688572
  N      10.774064    -14.785515     14.373556
  N      11.381842    -13.870334     16.395299
  H       7.736528    -17.001581     16.066622
  H       8.094535    -17.455303     14.404395
  H       8.308656    -15.772936     14.913075
  H       9.900187    -18.009430     16.282546
  H      10.451800    -17.411905     14.734706
  H      10.506188    -16.030335     17.321093
  H      11.174841    -13.944506     13.885164
  H      10.512897    -15.572218     13.799259
  H      11.904134    -13.130328     15.877315
  H      11.668668    -14.031736     17.351440
  C      13.998001     -9.220000      7.724999
  O      15.326549     -9.588941      8.091354
  C      13.980466     -7.879528      6.993926
  H      13.329681     -9.174595      8.584877
  H      13.599121    -10.007924      7.073217
  H      15.512940     -9.283066      9.012276
  H      14.347296     -7.083361      7.651827
  H      14.628117     -7.917268      6.110773
  H      12.963310     -7.622665      6.672388
  C      14.518001     -6.670000     12.632999
  S      13.612226     -8.189692     13.104081
  H      14.324364     -6.427596     11.588086
  H      15.592816     -6.812342     12.769317
  H      14.169448     -5.853826     13.269775
  H      14.271309     -8.959854     12.210145
  C      20.972000     -6.019000     10.963999
  C      20.067661     -7.022864     11.702933
  C      18.774224     -7.469698     10.977067
  O      17.951377     -8.121744     11.725764
  O      18.626371     -7.231239      9.762164
  H      20.586780     -5.000259     11.007275
  H      21.060110     -6.301125      9.910203
  H      21.976129     -6.008042     11.405118
  H      20.622822     -7.953711     11.875908
  H      19.788825     -6.645641     12.694745
  C      19.312999    -20.521999      7.175001
  C      18.264617    -19.507113      7.577296
  C      16.906165    -19.732377      7.311315
  C      18.605029    -18.316231      8.234819
  C      15.925977    -18.819305      7.693189
  C      17.636782    -17.387429      8.622832
  C      16.281206    -17.640115      8.363837
  O      15.285960    -16.798064      8.734639
  H      19.761228    -20.307815      6.204785
  H      18.877997    -21.525757      7.114357
  H      20.130977    -20.553936      7.903916
  H      16.607556    -20.648542      6.806080
  H      19.649542    -18.108538      8.457283
  H      14.874832    -19.011819      7.496286
  H      17.923896    -16.466552      9.125374
  H      15.618008    -16.066990      9.318548
  C      19.522001    -11.465000      7.842998
  C      19.181103    -10.592804      9.048984
  N      19.284561    -11.338296     10.290675
  C      20.189318    -11.038834     11.263232
  O      21.092278    -10.199382     11.137323
  N      20.056765    -11.810372     12.414994
  H      19.317472    -10.958064      6.899981
  H      18.914392    -12.376367      7.834995
  H      20.577310    -11.759443      7.862667
  H      19.847875     -9.733464      9.128163
  H      18.165402    -10.187859      8.948737
  H      18.631972    -12.109548     10.432550
  H      20.546168    -11.395478     13.198249
  H      19.105951    -12.100937     12.637400
114
Coordinates from ORCA-job 02_dft_opt_cit_react E -2995.449698687724
  C      16.322425    -11.069358     12.466762
  C      15.133200    -11.246754     13.358848
  C      13.961539    -11.664250     12.841641
  C      13.785890    -11.769544     11.391141
  C      14.724920    -11.358319     10.530471
  C      15.989455    -10.700735     11.005210
  C      12.852525    -12.179359     13.721486
  O      12.939063    -12.057353     14.970091
  O      11.908723    -12.775080     13.096126
  O      15.824718     -9.285042     10.832150
  O      17.104094    -12.332643     12.514197
  C      16.442113    -13.512964     12.231664
  C      16.439688    -13.961235     10.791563
  O      17.351275    -13.537737     10.032499
  O      15.508437    -14.760120     10.431073
  C      15.886020    -14.242922     13.202103
  H      17.034166    -10.335935     12.848685
  H      15.270574    -11.195867     14.433388
  H      12.849631    -12.192864     11.049171
  H      14.574312    -11.435817      9.463219
  H      16.841754    -11.025651     10.409347
  H      16.696179     -8.799371     11.114785
  H      15.367023    -15.166936     12.980397
  H      15.924925    -13.914065     14.235106
  O      12.908817    -15.062168     11.615790
  H      13.802469    -14.865390     11.270178
  H      12.606652    -14.231057     12.031471
  C      12.785000    -13.909001      5.224001
  C      13.447934    -12.542637      5.395109
  N      14.803081    -12.545733      5.959174
  C      15.178119    -12.971061      7.183779
  N      14.537572    -13.958146      7.816843
  N      16.237492    -12.385431      7.749685
  H      13.453745    -14.682279      4.845952
  H      11.952043    -13.809562      4.519902
  H      12.356230    -14.265431      6.166168
  H      13.555512    -12.064045      4.419375
  H      12.797984    -11.901888      6.003993
  H      15.432562    -11.858568      5.564430
  H      14.832704    -14.210886      8.768866
  H      14.025294    -14.660071      7.303533
  H      16.663150    -12.819949      8.582748
  H      16.304332    -11.370876      7.660309
  C       8.412999    -16.813004     15.233001
  C       9.863195    -17.153463     15.615544
  N      10.566469    -16.074826     16.312152
  C      10.920228    -14.927867     15.694214
  N      10.778361    -14.794197     14.379535
  N      11.390102    -13.887405     16.402480
  H       7.736528    -17.001581     16.066622
  H       8.091145    -17.446604     14.399141
  H       8.315538    -15.770006     14.920218
  H       9.896439    -18.022052     16.276612
  H      10.446249    -17.421892     14.728431
  H      10.517107    -16.051915     17.321627
  H      11.178544    -13.952446     13.892196
  H      10.529795    -15.582902     13.802116
  H      11.908180    -13.142765     15.886969
  H      11.674221    -14.046782     17.359784
  C      13.998001     -9.220000      7.724999
  O      15.322595     -9.600295      8.096076
  C      13.993242     -7.873760      7.004467
  H      13.329681     -9.174595      8.584877
  H      13.599804     -9.999737      7.064031
  H      15.511615     -9.293768      9.016664
  H      14.364293     -7.085838      7.669867
  H      14.643219     -7.909432      6.122884
  H      12.979207     -7.606632      6.681359
  C      14.518001     -6.670000     12.632999
  S      13.597920     -8.183767     13.105700
  H      14.324364     -6.427596     11.588086
  H      15.591274     -6.824402     12.767565
  H      14.178075     -5.850713     13.270280
  H      14.266248     -8.961633     12.225106
  C      20.972000     -6.019000     10.963999
  C      20.068972     -7.023837     11.704087
  C      18.776550     -7.468834     10.979925
  O      17.956596     -8.128356     11.727704
  O      18.620688     -7.223940      9.767117
  H      20.586780     -5.000259     11.007275
  H      21.059183     -6.303140      9.910757
  H      21.976056     -6.007977     11.405361
  H      20.626505     -7.953153     11.875928
  H      19.789437     -6.648838     12.696540
  C      19.312999    -20.521999      7.175001
  C      18.262754    -19.508350      7.576517
  C      16.905545    -19.733878      7.305848
  C      18.600011    -18.317640      8.236858
  C      15.922916    -18.821488      7.683838
  C      17.629802    -17.389232      8.622128
  C      16.275384    -17.641925      8.355823
  O      15.277914    -16.797079      8.719552
  H      19.761228    -20.307815      6.204785
  H      18.879215    -21.526358      7.112663
  H      20.130271    -20.554369      7.904697
  H      16.609601    -20.650162      6.799099
  H      19.643372    -18.108951      8.463882
  H      14.872759    -19.012749      7.481949
  H      17.913314    -16.468875      9.127579
  H      15.607117    -16.069080      9.309396
  C      19.522001    -11.465000      7.842998
  C      19.182704    -10.588848      9.047012
  N      19.276238    -11.331471     10.291829
  C      20.181275    -11.038048     11.265749
  O      21.082583    -10.195742     11.142767
  N      20.049505    -11.814331     12.413695
  H      19.317472    -10.958064      6.899981
  H      18.917212    -12.377054      7.844615
  H      20.577594    -11.759511      7.857890
  H      19.854495     -9.733498      9.125729
  H      18.169459    -10.179886      8.938346
  H      18.623203    -12.103411     10.426451
  H      20.537072    -11.401914     13.199477
  H      19.097811    -12.104198     12.634425
114
Coordinates from ORCA-job 02_dft_opt_cit_react E -2995.449896712386
  C      16.315366    -11.071922     12.468975
  C      15.124716    -11.246313     13.360419
  C      13.952870    -11.662143     12.842226
  C      13.778551    -11.766602     11.392202
  C      14.718503    -11.355656     10.532431
  C      15.984023    -10.701649     11.007886
  C      12.843371    -12.175199     13.721023
  O      12.926587    -12.053006     14.969523
  O      11.900416    -12.771705     13.094208
  O      15.821429     -9.285623     10.834487
  O      17.092686    -12.336727     12.517680
  C      16.428231    -13.515346     12.230997
  C      16.429180    -13.962300     10.790924
  O      17.341734    -13.539135     10.033037
  O      15.498734    -14.760362     10.427550
  C      15.867677    -14.244185     13.199520
  H      17.027709    -10.340281     12.853349
  H      15.261786    -11.195421     14.434951
  H      12.844215    -12.190893     11.046631
  H      14.564733    -11.432415      9.465693
  H      16.837116    -11.028493     10.414082
  H      16.694618     -8.801312     11.112414
  H      15.346233    -15.166104     12.975076
  H      15.902866    -13.916122     14.232796
  O      12.892405    -15.062102     11.612851
  H      13.786062    -14.867060     11.265736
  H      12.594322    -14.229759     12.029566
  C      12.785000    -13.909001      5.224001
  C      13.446681    -12.541370      5.388071
  N      14.802559    -12.539215      5.952579
  C      15.178769    -12.965254      7.177109
  N      14.556431    -13.970708      7.797797
  N      16.222266    -12.359886      7.754371
  H      13.453745    -14.682279      4.845952
  H      11.948298    -13.813327      4.523913
  H      12.360941    -14.262901      6.169189
  H      13.554462    -12.066671      4.410407
  H      12.796369    -11.898516      5.994370
  H      15.423292    -11.837562      5.569266
  H      14.841794    -14.218640      8.753250
  H      14.061101    -14.680608      7.278828
  H      16.649013    -12.800072      8.583432
  H      16.260499    -11.340350      7.691931
  C       8.412999    -16.813004     15.233001
  C       9.862605    -17.152356     15.616749
  N      10.563233    -16.072052     16.313715
  C      10.916228    -14.925655     15.694833
  N      10.779378    -14.795676     14.378819
  N      11.379142    -13.881876     16.402528
  H       7.736528    -17.001581     16.066622
  H       8.092441    -17.447951     14.399687
  H       8.315292    -15.770646     14.918491
  H       9.897529    -18.020985     16.277716
  H      10.447768    -17.420685     14.730936
  H      10.515620    -16.049572     17.323189
  H      11.175613    -13.952458     13.890951
  H      10.541052    -15.590183     13.805077
  H      11.895344    -13.135828     15.887280
  H      11.655778    -14.038199     17.362454
  C      13.998001     -9.220000      7.724999
  O      15.323205     -9.597954      8.098901
  C      13.994398     -7.874319      7.004187
  H      13.329681     -9.174595      8.584877
  H      13.602689    -10.000010      7.062640
  H      15.508098     -9.292772      9.021069
  H      14.364377     -7.085545      7.669059
  H      14.644791     -7.909904      6.122940
  H      12.981046     -7.607014      6.679150
  C      14.518001     -6.670000     12.632999
  S      13.589034     -8.177985     13.108598
  H      14.324364     -6.427596     11.588086
  H      15.590052     -6.833643     12.765807
  H      14.185832     -5.847645     13.270170
  H      14.255986     -8.961121     12.233051
  C      20.972000     -6.019000     10.963999
  C      20.070295     -7.025850     11.702226
  C      18.778263     -7.468805     10.978277
  O      17.957950     -8.129916     11.724324
  O      18.620938     -7.221085      9.766170
  H      20.586780     -5.000259     11.007275
  H      21.060724     -6.302670      9.910804
  H      21.975597     -6.007125     11.406479
  H      20.628765     -7.954970     11.872998
  H      19.791456     -6.653599     12.696019
  C      19.312999    -20.521999      7.175001
  C      18.261303    -19.510489      7.576042
  C      16.903375    -19.745031      7.319004
  C      18.598351    -18.312253      8.222904
  C      15.919481    -18.833936      7.696492
  C      17.627477    -17.384494      8.607447
  C      16.272805    -17.646818      8.353592
  O      15.273294    -16.801817      8.714877
  H      19.761228    -20.307815      6.204785
  H      18.882106    -21.527589      7.112697
  H      20.130555    -20.553216      7.904457
  H      16.607751    -20.667599      6.823631
  H      19.642533    -18.096898      8.439629
  H      14.868562    -19.031336      7.505956
  H      17.909800    -16.457990      9.102046
  H      15.601997    -16.071754      9.301698
  C      19.522001    -11.465000      7.842998
  C      19.177147    -10.589419      9.045829
  N      19.265993    -11.330572     10.291254
  C      20.172311    -11.040676     11.264758
  O      21.073755    -10.198605     11.142325
  N      20.039904    -11.818018     12.411639
  H      19.317472    -10.958064      6.899981
  H      18.919363    -12.378922      7.843863
  H      20.578257    -11.756983      7.860282
  H      19.846628     -9.732491      9.126623
  H      18.163030    -10.183551      8.933975
  H      18.613938    -12.103807     10.422438
  H      20.527646    -11.407644     13.198373
  H      19.087745    -12.105998     12.632617
114
Coordinates from ORCA-job 02_dft_opt_cit_react E -2995.450152657612
  C      16.307018    -11.073412     12.465461
  C      15.112644    -11.246459     13.352578
  C      13.942938    -11.664801     12.831625
  C      13.773497    -11.769572     11.382721
  C      14.714580    -11.353908     10.525950
  C      15.979388    -10.702574     11.004690
  C      12.827139    -12.167111     13.708097
  O      12.902596    -12.036316     14.955784
  O      11.885610    -12.763454     13.079505
  O      15.812821     -9.287140     10.831490
  O      17.081517    -12.338763     12.519560
  C      16.417362    -13.516785     12.226817
  C      16.424147    -13.962288     10.785428
  O      17.337008    -13.534920     10.031079
  O      15.497492    -14.763703     10.419513
  C      15.858838    -14.249612     13.193387
  H      17.018387    -10.343098     12.854286
  H      15.245628    -11.191140     14.427316
  H      12.849239    -12.204947     11.024799
  H      14.555566    -11.425191      9.459364
  H      16.833517    -11.032837     10.412610
  H      16.688239     -8.802172     11.097200
  H      15.340949    -15.171092     12.959313
  H      15.887777    -13.924380     14.227378
  O      12.883655    -15.057620     11.607045
  H      13.778240    -14.861372     11.262349
  H      12.584253    -14.225486     12.022864
  C      12.785000    -13.909001      5.224001
  C      13.446664    -12.541116      5.376745
  N      14.806807    -12.537304      5.933264
  C      15.185278    -12.960679      7.156898
  N      14.575234    -13.974666      7.774273
  N      16.221428    -12.348410      7.739381
  H      13.453745    -14.682279      4.845952
  H      11.943965    -13.818295      4.528532
  H      12.366060    -14.259123      6.172748
  H      13.549681    -12.068780      4.397374
  H      12.804071    -11.893673      5.986708
  H      15.423108    -11.830147      5.552559
  H      14.855808    -14.217294      8.731901
  H      14.098531    -14.695309      7.252345
  H      16.641083    -12.790111      8.568367
  H      16.231714    -11.325385      7.703845
  C       8.412999    -16.813004     15.233001
  C       9.862406    -17.136779     15.625062
  N      10.545991    -16.044220     16.319555
  C      10.899501    -14.901869     15.694362
  N      10.770989    -14.784750     14.375973
  N      11.350152    -13.850324     16.398189
  H       7.736528    -17.001581     16.066622
  H       8.100446    -17.460960     14.406591
  H       8.306830    -15.775569     14.906381
  H       9.904057    -18.002643     16.289411
  H      10.457868    -17.405824     14.745998
  H      10.513910    -16.026150     17.329359
  H      11.161010    -13.941559     13.884395
  H      10.545847    -15.591931     13.815071
  H      11.864348    -13.105303     15.879591
  H      11.612457    -14.001460     17.362712
  C      13.998001     -9.220000      7.724999
  O      15.325315     -9.595124      8.098890
  C      13.994105     -7.875326      7.003615
  H      13.329681     -9.174595      8.584877
  H      13.606528    -10.000540      7.060156
  H      15.505814     -9.293240      9.023011
  H      14.362252     -7.084177      7.666448
  H      14.643624     -7.910141      6.121830
  H      12.981285     -7.608061      6.676988
  C      14.518001     -6.670000     12.632999
  S      13.584493     -8.172153     13.113401
  H      14.324364     -6.427596     11.588086
  H      15.588907     -6.842482     12.763214
  H      14.194541     -5.844399     13.270062
  H      14.238411     -8.960013     12.236012
  C      20.972000     -6.019000     10.963999
  C      20.072009     -7.029036     11.697049
  C      18.780308     -7.469921     10.971246
  O      17.957106     -8.130012     11.712639
  O      18.627277     -7.219556      9.759103
  H      20.586780     -5.000259     11.007275
  H      21.065289     -6.299732      9.910434
  H      21.974633     -6.005022     11.408817
  H      20.631568     -7.958029     11.867643
  H      19.794456     -6.660174     12.692773
  C      19.312999    -20.521999      7.175001
  C      18.258416    -19.512341      7.571806
  C      16.901399    -19.750060      7.313569
  C      18.592059    -18.310950      8.214067
  C      15.915585    -18.838369      7.684690
  C      17.619999    -17.381656      8.591644
  C      16.267422    -17.648081      8.334896
  O      15.263849    -16.800313      8.686172
  H      19.761228    -20.307815      6.204785
  H      18.887701    -21.529890      7.113832
  H      20.130534    -20.549472      7.904554
  H      16.607707    -20.675487      6.822587
  H      19.635672    -18.094339      8.431991
  H      14.865131    -19.038282      7.495293
  H      17.899495    -16.451983      9.081371
  H      15.589499    -16.078571      9.282598
  C      19.522001    -11.465000      7.842998
  C      19.176282    -10.586102      9.043094
  N      19.260358    -11.323362     10.289585
  C      20.166775    -11.035402     11.263006
  O      21.070605    -10.197110     11.141261
  N      20.028933    -11.810323     12.411050
  H      19.317472    -10.958064      6.899981
  H      18.923283    -12.380903      7.850806
  H      20.578800    -11.754709      7.863097
  H      19.844997     -9.728511      9.123060
  H      18.162410    -10.180039      8.933127
  H      18.608945    -12.098027     10.419346
  H      20.513092    -11.400370     13.200103
  H      19.076401    -12.098608     12.629022
114
Coordinates from ORCA-job 02_dft_opt_cit_react E -2995.450260627517
  C      16.304024    -11.073620     12.468736
  C      15.110036    -11.246942     13.355187
  C      13.941311    -11.667054     12.834302
  C      13.771650    -11.770752     11.385661
  C      14.712605    -11.353902     10.528922
  C      15.978067    -10.703010     11.007652
  C      12.824260    -12.169614     13.710095
  O      12.898928    -12.035745     14.957549
  O      11.885396    -12.767694     13.081006
  O      15.811659     -9.288164     10.832345
  O      17.077392    -12.340717     12.520967
  C      16.412218    -13.517345     12.225552
  C      16.419049    -13.960437     10.782370
  O      17.330721    -13.530168     10.029059
  O      15.494098    -14.762543     10.415926
  C      15.855072    -14.253372     13.190458
  H      17.017242    -10.345105     12.857441
  H      15.242420    -11.190821     14.429987
  H      12.849668    -12.209133     11.025282
  H      14.552485    -11.422919      9.462770
  H      16.831371    -11.036161     10.416949
  H      16.687802     -8.802452     11.095529
  H      15.335870    -15.172467     12.950418
  H      15.884706    -13.931556     14.225384
  O      12.885059    -15.062002     11.604958
  H      13.779471    -14.866957     11.258738
  H      12.586198    -14.230544     12.022009
  C      12.785000    -13.909001      5.224001
  C      13.443450    -12.540011      5.373104
  N      14.804770    -12.530802      5.929000
  C      15.185907    -12.952333      7.153486
  N      14.591131    -13.980052      7.762897
  N      16.211966    -12.322549      7.738509
  H      13.453745    -14.682279      4.845952
  H      11.943934    -13.820602      4.528258
  H      12.367573    -14.257957      6.173664
  H      13.544321    -12.069720      4.392541
  H      12.801008    -11.891925      5.982162
  H      15.409808    -11.808952      5.557599
  H      14.866439    -14.220911      8.721594
  H      14.121456    -14.701173      7.235553
  H      16.632916    -12.768088      8.567080
  H      16.202356    -11.298052      7.714415
  C       8.412999    -16.813004     15.233001
  C       9.861425    -17.137089     15.627496
  N      10.543632    -16.043422     16.320861
  C      10.896181    -14.901643     15.693390
  N      10.772998    -14.790396     14.374021
  N      11.339319    -13.846966     16.396852
  H       7.736528    -17.001581     16.066622
  H       8.100021    -17.463232     14.408461
  H       8.307270    -15.776333     14.904298
  H       9.900859    -18.002186     16.293048
  H      10.459126    -17.409334     14.750867
  H      10.509177    -16.023835     17.330511
  H      11.162130    -13.946232     13.883084
  H      10.559395    -15.602722     13.816072
  H      11.855757    -13.102558     15.879278
  H      11.589890    -13.993934     17.365027
  C      13.998001     -9.220000      7.724999
  O      15.324737     -9.596392      8.099691
  C      13.996130     -7.874250      7.005997
  H      13.329681     -9.174595      8.584877
  H      13.608099     -9.999113      7.058626
  H      15.503982     -9.294199      9.024236
  H      14.364029     -7.084290      7.670313
  H      14.646328     -7.908282      6.124759
  H      12.983760     -7.605706      6.679143
  C      14.518001     -6.670000     12.632999
  S      13.587596     -8.171138     13.116349
  H      14.324364     -6.427596     11.588086
  H      15.589349     -6.839264     12.764183
  H      14.192900     -5.844073     13.268846
  H      14.242094     -8.960840     12.241983
  C      20.972000     -6.019000     10.963999
  C      20.073210     -7.030096     11.696155
  C      18.779883     -7.471860     10.970942
  O      17.956332     -8.129009     11.712870
  O      18.629789     -7.223044      9.758157
  H      20.586780     -5.000259     11.007275
  H      21.066034     -6.298148      9.909998
  H      21.974910     -6.004355     11.408206
  H      20.633709     -7.958709     11.864240
  H      19.797711     -6.662429     12.692912
  C      19.312999    -20.521999      7.175001
  C      18.258074    -19.513285      7.571225
  C      16.902016    -19.750884      7.309264
  C      18.590431    -18.314038      8.217533
  C      15.915790    -18.840313      7.680497
  C      17.617690    -17.385840      8.595194
  C      16.265989    -17.651215      8.334336
  O      15.262473    -16.803162      8.684826
  H      19.761228    -20.307815      6.204785
  H      18.889105    -21.530547      7.115763
  H      20.130904    -20.547159      7.904228
  H      16.609579    -20.674851      6.814914
  H      19.633696    -18.098751      8.438285
  H      14.866392    -19.041437      7.487826
  H      17.896411    -16.457810      9.088506
  H      15.588905    -16.080744      9.280188
  C      19.522001    -11.465000      7.842998
  C      19.176843    -10.584100      9.040693
  N      19.256018    -11.320355     10.288666
  C      20.163084    -11.036927     11.262718
  O      21.070678    -10.203250     11.142572
  N      20.021134    -11.812869     12.410147
  H      19.317472    -10.958064      6.899981
  H      18.923305    -12.380877      7.853751
  H      20.578921    -11.754015      7.864900
  H      19.847452     -9.728008      9.121717
  H      18.164348    -10.174530      8.928388
  H      18.604630    -12.094720     10.415551
  H      20.505578    -11.404988     13.200099
  H      19.067846    -12.099610     12.626552
114
Coordinates from ORCA-job 02_dft_opt_cit_react E -2995.450383790323
  C      16.300130    -11.071795     12.467275
  C      15.106338    -11.246989     13.352281
  C      13.938922    -11.669762     12.830994
  C      13.770126    -11.773509     11.381951
  C      14.710351    -11.353580     10.525908
  C      15.975372    -10.700606     11.005677
  C      12.818171    -12.169361     13.706182
  O      12.894806    -12.031882     14.953454
  O      11.878294    -12.764725     13.077950
  O      15.807313     -9.286252     10.831450
  O      17.074676    -12.339663     12.517573
  C      16.410953    -13.515939     12.220596
  C      16.418754    -13.957665     10.775714
  O      17.330431    -13.524734     10.024188
  O      15.496182    -14.762705     10.409862
  C      15.856633    -14.257067     13.183498
  H      17.014529    -10.344042     12.855016
  H      15.236702    -11.188565     14.427259
  H      12.850654    -12.215196     11.019134
  H      14.550565    -11.419890      9.459384
  H      16.827747    -11.035752     10.414670
  H      16.684240     -8.799880     11.091135
  H      15.340555    -15.176339     12.937104
  H      15.886360    -13.938803     14.219504
  O      12.888931    -15.053584     11.599573
  H      13.783613    -14.857716     11.254432
  H      12.586682    -14.224412     12.018223
  C      12.785000    -13.909001      5.224001
  C      13.443689    -12.539514      5.370388
  N      14.806938    -12.529496      5.922552
  C      15.191031    -12.948726      7.147077
  N      14.599605    -13.978195      7.757333
  N      16.218414    -12.317451      7.729079
  H      13.453745    -14.682279      4.845952
  H      11.945215    -13.821403      4.526521
  H      12.368125    -14.256510      6.174285
  H      13.540863    -12.070228      4.388992
  H      12.804444    -11.890009      5.981179
  H      15.409343    -11.806763      5.548431
  H      14.878123    -14.217559      8.716018
  H      14.134617    -14.700779      7.227814
  H      16.635685    -12.759585      8.560794
  H      16.198860    -11.292629      7.707124
  C       8.412999    -16.813004     15.233001
  C       9.861887    -17.132235     15.631077
  N      10.539243    -16.034627     16.321829
  C      10.890475    -14.893553     15.691926
  N      10.768829    -14.787080     14.372240
  N      11.329449    -13.836352     16.393956
  H       7.736528    -17.001581     16.066622
  H       8.101472    -17.467648     14.411320
  H       8.304694    -15.777780     14.900821
  H       9.899944    -17.994989     16.299755
  H      10.461720    -17.407475     14.756739
  H      10.511662    -16.017169     17.331652
  H      11.155309    -13.941757     13.880996
  H      10.561914    -15.601519     13.814817
  H      11.847706    -13.093648     15.875501
  H      11.573218    -13.978430     17.364532
  C      13.998001     -9.220000      7.724999
  O      15.326411     -9.590552      8.100473
  C      13.991108     -7.876221      7.002000
  H      13.329681     -9.174595      8.584877
  H      13.609419    -10.002220      7.061363
  H      15.503259     -9.290746      9.026478
  H      14.355895     -7.083245      7.664447
  H      14.641903     -7.910858      6.121266
  H      12.977396     -7.612951      6.675053
  C      14.518001     -6.670000     12.632999
  S      13.588902     -8.169425     13.118257
  H      14.324364     -6.427596     11.588086
  H      15.590000     -6.835347     12.764541
  H      14.191031     -5.844120     13.268217
  H      14.236212     -8.962187     12.241030
  C      20.972000     -6.019000     10.963999
  C      20.072243     -7.029732     11.695526
  C      18.778029     -7.473517     10.968701
  O      17.953127     -8.126722     11.710897
  O      18.633700     -7.227733      9.754602
  H      20.586780     -5.000259     11.007275
  H      21.066428     -6.296554      9.909507
  H      21.975113     -6.004685     11.407747
  H      20.633052     -7.958150     11.862890
  H      19.796650     -6.660888     12.691773
  C      19.312999    -20.521999      7.175001
  C      18.257226    -19.512557      7.569276
  C      16.901842    -19.747215      7.298900
  C      18.587842    -18.316070      8.221134
  C      15.915415    -18.835836      7.667865
  C      17.614124    -17.387700      8.596211
  C      16.263082    -17.649131      8.327815
  O      15.259982    -16.800777      8.676018
  H      19.761228    -20.307815      6.204785
  H      18.888570    -21.530329      7.117587
  H      20.130498    -20.544841      7.904724
  H      16.610367    -20.668778      6.799610
  H      19.630339    -18.103467      8.447981
  H      14.866921    -19.035952      7.468175
  H      17.892864    -16.461696      9.093453
  H      15.584526    -16.081110      9.275890
  C      19.522001    -11.465000      7.842998
  C      19.176925    -10.580876      9.038475
  N      19.254252    -11.315968     10.287428
  C      20.160725    -11.033858     11.262641
  O      21.072408    -10.204845     11.143933
  N      20.014031    -11.809106     12.410544
  H      19.317472    -10.958064      6.899981
  H      18.926294    -12.382836      7.858238
  H      20.579976    -11.750146      7.866971
  H      19.848653     -9.725610      9.119427
  H      18.165616    -10.168221      8.925920
  H      18.603173    -12.090672     10.413704
  H      20.497416    -11.401338     13.201190
  H      19.060104    -12.095882     12.623696
114
Coordinates from ORCA-job 02_dft_opt_cit_react E -2995.450479294780
  C      16.295153    -11.070955     12.466614
  C      15.102224    -11.247750     13.351460
  C      13.935419    -11.672036     12.830007
  C      13.766879    -11.775778     11.380133
  C      14.706047    -11.352965     10.524583
  C      15.970670    -10.698021     11.004845
  C      12.813321    -12.170231     13.705555
  O      12.893907    -12.032145     14.952922
  O      11.870485    -12.762174     13.079232
  O      15.803864     -9.283811     10.831360
  O      17.070453    -12.339712     12.513062
  C      16.407710    -13.515210     12.213870
  C      16.415781    -13.954019     10.767606
  O      17.327421    -13.518093     10.017668
  O      15.495326    -14.761588     10.401188
  C      15.853090    -14.260232     13.173894
  H      17.010805    -10.344087     12.853517
  H      15.231402    -11.187918     14.426528
  H      12.847392    -12.217510     11.017167
  H      14.547283    -11.416609      9.457570
  H      16.822051    -11.035408     10.413656
  H      16.681564     -8.797722     11.088741
  H      15.338160    -15.178948     12.922872
  H      15.883043    -13.945565     14.211099
  O      12.887377    -15.044201     11.593305
  H      13.781648    -14.847563     11.247949
  H      12.583694    -14.217121     12.014933
  C      12.785000    -13.909001      5.224001
  C      13.444076    -12.538522      5.367078
  N      14.809073    -12.525947      5.915830
  C      15.197249    -12.943015      7.140299
  N      14.612593    -13.976913      7.749649
  N      16.222902    -12.306047      7.720602
  H      13.453745    -14.682279      4.845952
  H      11.945180    -13.822838      4.526344
  H      12.370622    -14.254873      6.175985
  H      13.537782    -12.071376      4.384322
  H      12.805889    -11.888339      5.978276
  H      15.406480    -11.799341      5.541012
  H      14.894174    -14.215021      8.708583
  H      14.151715    -14.700650      7.218025
  H      16.637298    -12.744185      8.555371
  H      16.190080    -11.280926      7.701655
  C       8.412999    -16.813004     15.233001
  C       9.862530    -17.131106     15.632506
  N      10.538813    -16.032350     16.321671
  C      10.887372    -14.890836     15.691244
  N      10.765583    -14.785904     14.371452
  N      11.323876    -13.831708     16.391656
  H       7.736528    -17.001581     16.066622
  H       8.101588    -17.467866     14.411442
  H       8.304408    -15.777665     14.901091
  H       9.898453    -17.992159     16.303425
  H      10.461476    -17.408287     14.758191
  H      10.517008    -16.017003     17.331663
  H      11.149167    -13.938353     13.881042
  H      10.566873    -15.600542     13.811171
  H      11.844482    -13.090283     15.873286
  H      11.561638    -13.967533     17.364630
  C      13.998001     -9.220000      7.724999
  O      15.327894     -9.583381      8.102223
  C      13.985225     -7.878508      6.997206
  H      13.329681     -9.174595      8.584877
  H      13.610814    -10.005974      7.064833
  H      15.502252     -9.286304      9.029969
  H      14.346726     -7.082412      7.657778
  H      14.636899     -7.913920      6.117129
  H      12.969966     -7.621610      6.670025
  C      14.518001     -6.670000     12.632999
  S      13.587571     -8.167681     13.119677
  H      14.324364     -6.427596     11.588086
  H      15.590529     -6.832232     12.764722
  H      14.189479     -5.844053     13.267676
  H      14.229979     -8.963343     12.240023
  C      20.972000     -6.019000     10.963999
  C      20.070722     -7.029381     11.695436
  C      18.775924     -7.473439     10.967737
  O      17.950622     -8.125383     11.710490
  O      18.633679     -7.228797      9.753057
  H      20.586780     -5.000259     11.007275
  H      21.066309     -6.296032      9.909290
  H      21.975119     -6.005715     11.407735
  H      20.631616     -7.958089     11.860466
  H      19.795122     -6.660439     12.691498
  C      19.312999    -20.521999      7.175001
  C      18.256011    -19.512130      7.567802
  C      16.901404    -19.743209      7.288267
  C      18.584764    -18.318916      8.226625
  C      15.914392    -18.831380      7.655483
  C      17.609849    -17.390759      8.599618
  C      16.259348    -17.647681      8.322805
  O      15.256968    -16.799289      8.669490
  H      19.761228    -20.307815      6.204785
  H      18.887739    -21.530050      7.118894
  H      20.129886    -20.542790      7.905456
  H      16.611096    -20.661977      6.783157
  H      19.626272    -18.108794      8.460281
  H      14.866730    -19.029660      7.447828
  H      17.888274    -16.467350      9.102065
  H      15.579760    -16.080826      9.272205
  C      19.522001    -11.465000      7.842998
  C      19.177394    -10.577681      9.036829
  N      19.251590    -11.311781     10.286879
  C      20.158105    -11.032665     11.263215
  O      21.073908    -10.207519     11.145757
  N      20.007345    -11.807728     12.410782
  H      19.317472    -10.958064      6.899981
  H      18.929075    -12.384707      7.862413
  H      20.580980    -11.746750      7.868192
  H      19.851975     -9.724655      9.117858
  H      18.168004    -10.160766      8.922164
  H      18.600350    -12.086583     10.411364
  H      20.490307    -11.400904     13.202154
  H      19.052499    -12.094203     12.620529
114
Coordinates from ORCA-job 02_dft_opt_cit_react E -2995.450574686023
  C      16.291489    -11.070330     12.464909
  C      15.099300    -11.249039     13.349819
  C      13.933066    -11.674792     12.827952
  C      13.764918    -11.778544     11.377457
  C      14.702970    -11.352029     10.522640
  C      15.966770    -10.695582     11.003437
  C      12.811069    -12.171284     13.704485
  O      12.895044    -12.033471     14.951951
  O      11.864574    -12.760050     13.080503
  O      15.801714     -9.281535     10.829852
  O      17.067810    -12.339459     12.507464
  C      16.406152    -13.514682     12.206681
  C      16.413396    -13.950208     10.759511
  O      17.324192    -13.510763     10.010486
  O      15.494578    -14.759789     10.391747
  C      15.851158    -14.262335     13.164621
  H      17.007560    -10.344173     12.852244
  H      15.227267    -11.188014     14.424930
  H      12.845365    -12.220255     11.014375
  H      14.545283    -11.411522      9.455105
  H      16.817445    -11.034854     10.412251
  H      16.680072     -8.795735     11.084985
  H      15.336613    -15.180484     12.910933
  H      15.881452    -13.950328     14.202705
  O      12.885314    -15.036821     11.588025
  H      13.779187    -14.839443     11.242623
  H      12.581265    -14.210778     12.011486
  C      12.785000    -13.909001      5.224001
  C      13.444497    -12.537626      5.363044
  N      14.811486    -12.522171      5.907386
  C      15.203890    -12.936198      7.131864
  N      14.624556    -13.972176      7.742357
  N      16.228683    -12.295184      7.709965
  H      13.453745    -14.682279      4.845952
  H      11.943683    -13.824576      4.528030
  H      12.374045    -14.253398      6.178096
  H      13.534789    -12.072859      4.378831
  H      12.806937    -11.887021      5.974456
  H      15.403504    -11.791415      5.531912
  H      14.910593    -14.210556      8.700525
  H      14.163197    -14.695635      7.210718
  H      16.639959    -12.729422      8.548271
  H      16.189013    -11.270277      7.690701
  C       8.412999    -16.813004     15.233001
  C       9.863146    -17.129975     15.633054
  N      10.538708    -16.030322     16.321244
  C      10.884309    -14.888421     15.690519
  N      10.761933    -14.784014     14.370547
  N      11.319106    -13.827197     16.388646
  H       7.736528    -17.001581     16.066622
  H       8.102296    -17.467230     14.410724
  H       8.304073    -15.777368     14.901894
  H       9.898631    -17.989854     16.305417
  H      10.460919    -17.407449     14.758098
  H      10.521875    -16.016502     17.331351
  H      11.143027    -13.934286     13.881239
  H      10.570314    -15.598722     13.807785
  H      11.842657    -13.087435     15.870378
  H      11.551474    -13.957153     17.363771
  C      13.998001     -9.220000      7.724999
  O      15.329366     -9.576024      8.102477
  C      13.978640     -7.881079      6.992233
  H      13.329681     -9.174595      8.584877
  H      13.611884    -10.009844      7.068603
  H      15.502057     -9.281462      9.031593
  H      14.337362     -7.081541      7.650203
  H      14.630233     -7.917064      6.112079
  H      12.961795     -7.630436      6.665182
  C      14.518001     -6.670000     12.632999
  S      13.587905     -8.168048     13.120095
  H      14.324364     -6.427596     11.588086
  H      15.591003     -6.829318     12.764787
  H      14.187645     -5.844399     13.267379
  H      14.226000     -8.962875     12.235341
  C      20.972000     -6.019000     10.963999
  C      20.069407     -7.029768     11.694495
  C      18.774315     -7.471647     10.966627
  O      17.949048     -8.124612     11.709297
  O      18.631104     -7.225826      9.752200
  H      20.586780     -5.000259     11.007275
  H      21.066919     -6.295915      9.909302
  H      21.974638     -6.006692     11.408806
  H      20.629555     -7.959578     11.856011
  H      19.794646     -6.662636     12.691325
  C      19.312999    -20.521999      7.175001
  C      18.254624    -19.512374      7.566363
  C      16.901583    -19.737716      7.273897
  C      18.580917    -18.324403      8.236033
  C      15.913710    -18.825741      7.639303
  C      17.604982    -17.396490      8.607166
  C      16.255759    -17.647486      8.317896
  O      15.253495    -16.799115      8.663283
  H      19.761228    -20.307815      6.204785
  H      18.888077    -21.530284      7.119648
  H      20.129252    -20.540779      7.906161
  H      16.612955    -20.652123      6.759915
  H      19.620929    -18.118203      8.479656
  H      14.867337    -19.019959      7.420792
  H      17.882171    -16.477277      9.118024
  H      15.575158    -16.082084      9.268538
  C      19.522001    -11.465000      7.842998
  C      19.180685    -10.575009      9.036482
  N      19.252080    -11.308436     10.287125
  C      20.159254    -11.032789     11.263992
  O      21.078825    -10.210992     11.146847
  N      20.004897    -11.806749     12.411406
  H      19.317472    -10.958064      6.899981
  H      18.929858    -12.385056      7.865680
  H      20.581158    -11.746487      7.868132
  H      19.859970     -9.725608      9.116750
  H      18.173713    -10.152526      8.921164
  H      18.599840    -12.082539     10.410415
  H      20.487658    -11.401288     13.203529
  H      19.049309    -12.093207     12.618035
114
Coordinates from ORCA-job 02_dft_opt_cit_react E -2995.450658801058
  C      16.286062    -11.069395     12.462186
  C      15.094997    -11.249553     13.348068
  C      13.928268    -11.674599     12.826050
  C      13.759385    -11.776930     11.375240
  C      14.696247    -11.347177     10.520939
  C      15.960314    -10.691587     11.001791
  C      12.807547    -12.169200     13.704214
  O      12.895457    -12.034059     14.951878
  O      11.855999    -12.753448     13.082786
  O      15.799453     -9.277410     10.828219
  O      17.061936    -12.339428     12.499490
  C      16.400387    -13.513893     12.196957
  C      16.407071    -13.945804     10.749264
  O      17.316402    -13.502746     10.000572
  O      15.489879    -14.756850     10.379124
  C      15.843482    -14.262749     13.152929
  H      17.003298    -10.345172     12.850921
  H      15.222664    -11.188958     14.423156
  H      12.838643    -12.217035     11.013121
  H      14.539128    -11.402383      9.452907
  H      16.810266    -11.033488     10.410858
  H      16.679245     -8.793329     11.081294
  H      15.328733    -15.180410     12.898132
  H      15.873444    -13.952583     14.191636
  O      12.877458    -15.024303     11.580609
  H      13.770913    -14.826719     11.234547
  H      12.575052    -14.198769     12.006549
  C      12.785000    -13.909001      5.224001
  C      13.444676    -12.536120      5.355757
  N      14.813796    -12.514397      5.895697
  C      15.212206    -12.925271      7.119890
  N      14.644828    -13.968421      7.728964
  N      16.230988    -12.274062      7.698736
  H      13.453745    -14.682279      4.845952
  H      11.940295    -13.827449      4.531997
  H      12.379427    -14.250732      6.181453
  H      13.531583    -12.076108      4.368979
  H      12.806745    -11.884397      5.965517
  H      15.397228    -11.775950      5.521546
  H      14.934412    -14.207310      8.686585
  H      14.186244    -14.693052      7.196475
  H      16.639469    -12.704928      8.539475
  H      16.178063    -11.249016      7.684899
  C       8.412999    -16.813004     15.233001
  C       9.863754    -17.129905     15.631941
  N      10.540226    -16.030207     16.319648
  C      10.881685    -14.887188     15.689545
  N      10.758254    -14.781646     14.369344
  N      11.314141    -13.823826     16.385607
  H       7.736528    -17.001581     16.066622
  H       8.102913    -17.465407     14.409146
  H       8.304163    -15.776777     14.903466
  H       9.900060    -17.989220     16.304879
  H      10.459516    -17.406547     14.755448
  H      10.528684    -16.018252     17.329869
  H      11.135202    -13.928709     13.882329
  H      10.576355    -15.596457     13.803413
  H      11.840662    -13.085443     15.868210
  H      11.539824    -13.947592     17.363161
  C      13.998001     -9.220000      7.724999
  O      15.332126     -9.563214      8.102639
  C      13.967945     -7.886414      6.982843
  H      13.329681     -9.174595      8.584877
  H      13.613422    -10.016697      7.075451
  H      15.501393     -9.272414      9.033810
  H      14.322152     -7.080045      7.634890
  H      14.618727     -7.924022      6.102109
  H      12.948851     -7.645722      6.655378
  C      14.518001     -6.670000     12.632999
  S      13.585151     -8.167303     13.120051
  H      14.324364     -6.427596     11.588086
  H      15.590958     -6.830197     12.764202
  H      14.188476     -5.844014     13.267373
  H      14.216968     -8.961043     12.229193
  C      20.972000     -6.019000     10.963999
  C      20.068255     -7.030865     11.692549
  C      18.772911     -7.468475     10.965158
  O      17.948242     -8.124456     11.707314
  O      18.626122     -7.219449      9.751789
  H      20.586780     -5.000259     11.007275
  H      21.068136     -6.296026      9.909470
  H      21.973722     -6.007729     11.410828
  H      20.626930     -7.962486     11.849419
  H      19.795043     -6.667355     12.691024
  C      19.312999    -20.521999      7.175001
  C      18.252847    -19.513513      7.564894
  C      16.901723    -19.734267      7.260780
  C      18.576054    -18.330114      8.244476
  C      15.912334    -18.823111      7.624622
  C      17.598771    -17.403107      8.614320
  C      16.251120    -17.650124      8.313794
  O      15.247593    -16.803147      8.658865
  H      19.761228    -20.307815      6.204785
  H      18.889580    -21.530996      7.119864
  H      20.128545    -20.538753      7.906918
  H      16.615298    -20.644801      6.738658
  H      19.614424    -18.126673      8.497261
  H      14.867402    -19.013619      7.396304
  H      17.873790    -16.487572      9.132885
  H      15.568177    -16.085692      9.264062
  C      19.522001    -11.465000      7.842998
  C      19.183072    -10.573227      9.036756
  N      19.250054    -11.305970     10.287669
  C      20.158775    -11.035839     11.264691
  O      21.082271    -10.217490     11.148040
  N      20.000803    -11.808986     12.411398
  H      19.317472    -10.958064      6.899981
  H      18.930334    -12.385821      7.866966
  H      20.581182    -11.746789      7.867940
  H      19.867315     -9.727751      9.116782
  H      18.178495    -10.145581      8.920267
  H      18.596390    -12.079332     10.408748
  H      20.483930    -11.406216     13.204571
  H      19.044364    -12.094694     12.615065
114
Coordinates from ORCA-job 02_dft_opt_cit_react E -2995.450759090768
  C      16.284219    -11.068464     12.457713
  C      15.094408    -11.250349     13.344917
  C      13.926927    -11.674286     12.823257
  C      13.756215    -11.774141     11.372619
  C      14.691837    -11.341442     10.518358
  C      15.956810    -10.688277     10.998636
  C      12.808336    -12.167809     13.703355
  O      12.898800    -12.035627     14.951104
  O      11.853105    -12.748870     13.083798
  O      15.799932     -9.274067     10.824404
  O      17.060011    -12.338759     12.490260
  C      16.398533    -13.513159     12.187127
  C      16.403222    -13.941548     10.738927
  O      17.309113    -13.493481      9.989346
  O      15.486836    -14.753391     10.366842
  C      15.842081    -14.262529     13.142861
  H      17.002066    -10.345882     12.848352
  H      15.222558    -11.191154     14.419939
  H      12.834236    -12.212964     11.011940
  H      14.534649    -11.391885      9.450096
  H      16.805784    -11.032535     10.407591
  H      16.680814     -8.791248     11.077186
  H      15.327380    -15.180502     12.889426
  H      15.872652    -13.953013     14.181735
  O      12.874247    -15.015084     11.575519
  H      13.767336    -14.817521     11.228784
  H      12.573777    -14.189232     12.002268
  C      12.785000    -13.909001      5.224001
  C      13.443712    -12.534828      5.347397
  N      14.814789    -12.507147      5.882193
  C      15.218816    -12.914422      7.105904
  N      14.660947    -13.961235      7.716482
  N      16.233943    -12.256775      7.683487
  H      13.453745    -14.682279      4.845952
  H      11.936118    -13.830667      4.536957
  H      12.384937    -14.248081      6.184767
  H      13.526949    -12.079586      4.358062
  H      12.805777    -11.881907      5.955744
  H      15.390862    -11.762923      5.508065
  H      14.955843    -14.202426      8.672212
  H      14.198888    -14.685106      7.186006
  H      16.640509    -12.683746      8.527334
  H      16.177599    -11.232149      7.668099
  C       8.412999    -16.813004     15.233001
  C       9.863959    -17.130920     15.629337
  N      10.542789    -16.031969     16.316837
  C      10.880860    -14.887871     15.687640
  N      10.755623    -14.780406     14.367412
  N      11.312062    -13.823450     16.382641
  H       7.736528    -17.001581     16.066622
  H       8.103038    -17.463402     14.407622
  H       8.304620    -15.776270     14.904872
  H       9.902343    -17.990511     16.301740
  H      10.457816    -17.406060     14.751146
  H      10.534812    -16.021249     17.327107
  H      11.129814    -13.925142     13.882885
  H      10.581683    -15.595784     13.799739
  H      11.841325    -13.086310     15.866257
  H      11.532661    -13.943899     17.361793
  C      13.998001     -9.220000      7.724999
  O      15.334812     -9.551379      8.099932
  C      13.956672     -7.891727      6.974216
  H      13.329681     -9.174595      8.584877
  H      13.614248    -10.022878      7.082301
  H      15.502501     -9.263852      9.032448
  H      14.307236     -7.078488      7.619602
  H      14.605130     -7.930533      6.091806
  H      12.935317     -7.660079      6.647393
  C      14.518001     -6.670000     12.632999
  S      13.585854     -8.169302     13.117942
  H      14.324364     -6.427596     11.588086
  H      15.590820     -6.830745     12.764284
  H      14.187993     -5.844574     13.267674
  H      14.212311     -8.957516     12.218710
  C      20.972000     -6.019000     10.963999
  C      20.068027     -7.032701     11.689780
  C      18.772161     -7.465188     10.963482
  O      17.948529     -8.124817     11.704799
  O      18.620882     -7.211838      9.751679
  H      20.586780     -5.000259     11.007275
  H      21.069942     -6.295871      9.909640
  H      21.972662     -6.008212     11.413132
  H      20.624497     -7.966658     11.841801
  H      19.797116     -6.673963     12.690583
  C      19.312999    -20.521999      7.175001
  C      18.251267    -19.514896      7.563376
  C      16.903170    -19.727567      7.241508
  C      18.570352    -18.339654      8.258988
  C      15.912253    -18.817495      7.603964
  C      17.591988    -17.413549      8.628018
  C      16.247177    -17.653737      8.310067
  O      15.241377    -16.809099      8.655989
  H      19.761228    -20.307815      6.204785
  H      18.892092    -21.532112      7.119626
  H      20.127940    -20.537100      7.907497
  H      16.619758    -20.631380      6.706165
  H      19.606307    -18.141806      8.525657
  H      14.869338    -19.001054      7.361614
  H      17.863696    -16.504525      9.159434
  H      15.561469    -16.091865      9.261223
  C      19.522001    -11.465000      7.842998
  C      19.189582    -10.571950      9.038062
  N      19.252645    -11.304651     10.288743
  C      20.163280    -11.040317     11.265487
  O      21.090094    -10.225152     11.149250
  N      20.002087    -11.812972     12.411335
  H      19.317472    -10.958064      6.899981
  H      18.927790    -12.383874      7.867393
  H      20.580023    -11.751432      7.865451
  H      19.880597     -9.731805      9.116768
  H      18.187958    -10.137518      8.922769
  H      18.596457    -12.076164     10.408496
  H      20.485934    -11.413962     13.205828
  H      19.045142    -12.098393     12.612859
114
Coordinates from ORCA-job 02_dft_opt_cit_react E -2995.450852898325
  C      16.281694    -11.068036     12.452766
  C      15.093253    -11.249829     13.342126
  C      13.923534    -11.669366     12.821739
  C      13.749152    -11.764581     11.371626
  C      14.684003    -11.332106     10.516446
  C      15.952184    -10.684809     10.995265
  C      12.806835    -12.163333     13.703215
  O      12.898932    -12.035711     14.951083
  O      11.849610    -12.741746     13.083724
  O      15.800617     -9.270082     10.821815
  O      17.055159    -12.339124     12.481130
  C      16.392130    -13.512790     12.177353
  C      16.395974    -13.938817     10.728866
  O      17.298149    -13.487079      9.977529
  O      15.479801    -14.750249     10.355557
  C      15.835612    -14.261414     13.133418
  H      17.001165    -10.347793     12.844824
  H      15.223857    -11.194404     14.417023
  H      12.824592    -12.199972     11.013520
  H      14.524878    -11.380746      9.448306
  H      16.799984    -11.031382     10.403778
  H      16.683110     -8.789762     11.076326
  H      15.321091    -15.180319     12.882944
  H      15.866266    -13.951462     14.172117
  O      12.867123    -15.003473     11.570171
  H      13.759931    -14.807265     11.221597
  H      12.570126    -14.176811     11.997956
  C      12.785000    -13.909001      5.224001
  C      13.442459    -12.533323      5.336694
  N      14.814286    -12.497981      5.869777
  C      15.223583    -12.904165      7.092596
  N      14.681992    -13.961688      7.698958
  N      16.228687    -12.233770      7.673596
  H      13.453745    -14.682279      4.845952
  H      11.931745    -13.834553      4.542074
  H      12.390604    -14.244049      6.188454
  H      13.523974    -12.085134      4.343957
  H      12.803883    -11.877341      5.940816
  H      15.382579    -11.746243      5.498677
  H      14.977560    -14.203874      8.654390
  H      14.224286    -14.687803      7.167872
  H      16.636247    -12.658969      8.516980
  H      16.160837    -11.208887      7.664953
  C       8.412999    -16.813004     15.233001
  C       9.863825    -17.134230     15.625022
  N      10.547441    -16.037470     16.312476
  C      10.883022    -14.891728     15.685106
  N      10.756042    -14.781427     14.365003
  N      11.312704    -13.827748     16.381448
  H       7.736528    -17.001581     16.066622
  H       8.101534    -17.461046     14.406368
  H       8.306144    -15.775689     14.906329
  H       9.904164    -17.994922     16.295896
  H      10.455344    -17.408457     14.744979
  H      10.541351    -16.027955     17.322778
  H      11.126751    -13.924092     13.883062
  H      10.590708    -15.597846     13.796209
  H      11.842205    -13.090056     15.866691
  H      11.529685    -13.947876     17.361417
  C      13.998001     -9.220000      7.724999
  O      15.338515     -9.536186      8.097799
  C      13.943707     -7.898852      6.963080
  H      13.329681     -9.174595      8.584877
  H      13.615196    -10.030462      7.090701
  H      15.502871     -9.252961      9.032336
  H      14.289532     -7.076755      7.599630
  H      14.589481     -7.939865      6.078795
  H      12.919905     -7.677917      6.636566
  C      14.518001     -6.670000     12.632999
  S      13.581326     -8.168166     13.115342
  H      14.324364     -6.427596     11.588086
  H      15.589845     -6.836771     12.763941
  H      14.191312     -5.843995     13.268341
  H      14.201637     -8.953828     12.210695
  C      20.972000     -6.019000     10.963999
  C      20.068375     -7.034279     11.687170
  C      18.771610     -7.462808     10.961899
  O      17.949318     -8.125795     11.702349
  O      18.616704     -7.205093      9.751711
  H      20.586780     -5.000259     11.007275
  H      21.071510     -6.295436      9.909694
  H      21.971891     -6.008241     11.414806
  H      20.622938     -7.969997     11.836064
  H      19.799213     -6.679517     12.689915
  C      19.312999    -20.521999      7.175001
  C      18.250104    -19.516531      7.562432
  C      16.903965    -19.726784      7.232273
  C      18.566015    -18.344882      8.265396
  C      15.911469    -18.818718      7.594450
  C      17.586389    -17.420420      8.634996
  C      16.243489    -17.659718      8.309380
  O      15.234224    -16.819330      8.658014
  H      19.761228    -20.307815      6.204785
  H      18.894521    -21.533122      7.119026
  H      20.127598    -20.536352      7.907795
  H      16.623084    -20.627504      6.690414
  H      19.600599    -18.148534      8.538352
  H      14.869754    -18.999224      7.345917
  H      17.855090    -16.514309      9.172652
  H      15.553574    -16.099511      9.259882
  C      19.522001    -11.465000      7.842998
  C      19.191692    -10.572418      9.039003
  N      19.250232    -11.305464     10.289209
  C      20.162987    -11.047394     11.265529
  O      21.091634    -10.234265     11.150949
  N      20.000096    -11.822225     12.409296
  H      19.317472    -10.958064      6.899981
  H      18.925538    -12.383098      7.864731
  H      20.579178    -11.754643      7.863245
  H      19.886067     -9.735077      9.118069
  H      18.191469    -10.135150      8.923521
  H      18.592116    -12.075796     10.406609
  H      20.485572    -11.428338     13.205266
  H      19.042851    -12.106490     12.610433
114
Coordinates from ORCA-job 02_dft_opt_cit_react E -2995.450937171956
  C      16.284683    -11.069133     12.446359
  C      15.097231    -11.251162     13.337374
  C      13.925874    -11.667473     12.818654
  C      13.747771    -11.758146     11.369080
  C      14.682046    -11.326416     10.512570
  C      15.953298    -10.684556     10.989769
  C      12.810350    -12.163383     13.700780
  O      12.901794    -12.037929     14.948609
  O      11.854659    -12.742529     13.079977
  O      15.804360     -9.269510     10.817161
  O      17.057582    -12.339588     12.473074
  C      16.393929    -13.513644     12.169572
  C      16.394985    -13.937382     10.720254
  O      17.292020    -13.480488      9.966472
  O      15.477922    -14.748231     10.347589
  C      15.841525    -14.262708     13.127393
  H      17.004229    -10.349186     12.838950
  H      15.230624    -11.199121     14.412122
  H      12.821392    -12.191138     11.012701
  H      14.520047    -11.373433      9.444870
  H      16.799460    -11.032090     10.396706
  H      16.687099     -8.789758     11.075636
  H      15.328123    -15.183273     12.880596
  H      15.874198    -13.952373     14.165849
  O      12.870236    -15.001958     11.569468
  H      13.762700    -14.807162     11.219251
  H      12.575076    -14.173924     11.995592
  C      12.785000    -13.909001      5.224001
  C      13.440321    -12.532584      5.326824
  N      14.812398    -12.493354      5.858299
  C      15.224248    -12.899225      7.080276
  N      14.690858    -13.960600      7.686108
  N      16.225988    -12.226192      7.661776
  H      13.453745    -14.682279      4.845952
  H      11.928279    -13.838563      4.545990
  H      12.395214    -14.240554      6.191393
  H      13.520288    -12.090078      4.331391
  H      12.802582    -11.873252      5.927970
  H      15.377706    -11.739078      5.487904
  H      14.988463    -14.204310      8.640384
  H      14.230019    -14.686337      7.157361
  H      16.636133    -12.648848      8.505311
  H      16.162250    -11.201638      7.648839
  C       8.412999    -16.813004     15.233001
  C       9.863329    -17.137684     15.621133
  N      10.551625    -16.043083     16.308100
  C      10.887395    -14.896648     15.681734
  N      10.758473    -14.784854     14.361984
  N      11.317655    -13.834456     16.380352
  H       7.736528    -17.001581     16.066622
  H       8.099208    -17.459796     14.406203
  H       8.307766    -15.775446     14.906828
  H       9.905129    -17.999593     16.290437
  H      10.453296    -17.412139     14.740046
  H      10.544936    -16.033532     17.318394
  H      11.129117    -13.927865     13.880800
  H      10.597088    -15.603128     13.794678
  H      11.846341    -13.095924     15.866360
  H      11.534838    -13.958010     17.359787
  C      13.998001     -9.220000      7.724999
  O      15.341166     -9.526937      8.093058
  C      13.933554     -7.902770      6.957446
  H      13.329681     -9.174595      8.584877
  H      13.615507    -10.034262      7.095552
  H      15.505611     -9.247084      9.028592
  H      14.277002     -7.075228      7.588148
  H      14.575840     -7.944006      6.070621
  H      12.907670     -7.688373      6.633117
  C      14.518001     -6.670000     12.632999
  S      13.582490     -8.170446     13.111240
  H      14.324364     -6.427596     11.588086
  H      15.589322     -6.838559     12.765094
  H      14.190515     -5.844996     13.268920
  H      14.199624     -8.950515     12.200703
  C      20.972000     -6.019000     10.963999
  C      20.069341     -7.035527     11.685156
  C      18.771373     -7.462058     10.960427
  O      17.950310     -8.126939     11.700011
  O      18.615284     -7.200833      9.751398
  H      20.586780     -5.000259     11.007275
  H      21.072859     -6.294358      9.909518
  H      21.971609     -6.007595     11.415438
  H      20.622464     -7.972428     11.832704
  H      19.801349     -6.683233     12.689195
  C      19.312999    -20.521999      7.175001
  C      18.249484    -19.517341      7.561536
  C      16.905857    -19.721551      7.217521
  C      18.561869    -18.352678      8.277017
  C      15.912466    -18.814738      7.579449
  C      17.581425    -17.429227      8.647055
  C      16.241268    -17.663657      8.308397
  O      15.228921    -16.827293      8.659770
  H      19.761228    -20.307815      6.204785
  H      18.896331    -21.533872      7.118654
  H      20.127476    -20.536032      7.907846
  H      16.627848    -20.616556      6.664870
  H      19.594583    -18.161173      8.560233
  H      14.872223    -18.989314      7.321027
  H      17.847040    -16.528671      9.195245
  H      15.547377    -16.107291      9.261294
  C      19.522001    -11.465000      7.842998
  C      19.198039    -10.572638      9.040236
  N      19.254385    -11.306957     10.289820
  C      20.168636    -11.053247     11.265798
  O      21.097907    -10.241180     11.153132
  N      20.005116    -11.831467     12.407291
  H      19.317472    -10.958064      6.899981
  H      18.920443    -12.379147      7.863207
  H      20.577370    -11.761212      7.858673
  H      19.896443     -9.738582      9.118624
  H      18.199443    -10.131356      8.927095
  H      18.593823    -12.075189     10.406608
  H      20.492196    -11.442767     13.204777
  H      19.048161    -12.115960     12.609135
114
Coordinates from ORCA-job 02_dft_opt_cit_react E -2995.451011021338
  C      16.284915    -11.071642     12.440729
  C      15.098128    -11.252552     13.333289
  C      13.924743    -11.664473     12.816299
  C      13.743182    -11.750602     11.366947
  C      14.677398    -11.321606     10.508997
  C      15.952243    -10.685200     10.984710
  C      12.809072    -12.162940     13.697970
  O      12.899624    -12.038700     14.945804
  O      11.856118    -12.743696     13.075120
  O      15.805823     -9.269479     10.814585
  O      17.056172    -12.341889     12.466865
  C      16.391286    -13.515379     12.162278
  C      16.390800    -13.936928     10.711978
  O      17.284223    -13.476643      9.956379
  O      15.473226    -14.747153     10.340539
  C      15.841608    -14.265732     13.120498
  H      17.005054    -10.351819     12.832598
  H      15.234803    -11.204070     14.407888
  H      12.814666    -12.179738     11.011552
  H      14.511369    -11.369317      9.441882
  H      16.796720    -11.033424     10.389679
  H      16.688719     -8.790615     11.077104
  H      15.328923    -15.187154     12.874945
  H      15.875968    -13.956304     14.159173
  O      12.869382    -15.001258     11.567407
  H      13.761403    -14.808532     11.214472
  H      12.576364    -14.172020     11.992663
  C      12.785000    -13.909001      5.224001
  C      13.439491    -12.531916      5.316382
  N      14.810996    -12.488696      5.849767
  C      15.224651    -12.896684      7.070944
  N      14.705102    -13.968991      7.669419
  N      16.217069    -12.214250      7.657229
  H      13.453745    -14.682279      4.845952
  H      11.925935    -13.842846      4.548422
  H      12.399540    -14.236059      6.194455
  H      13.520226    -12.096884      4.317679
  H      12.802357    -11.867193      5.912011
  H      15.372107    -11.728781      5.484442
  H      14.998830    -14.211303      8.625035
  H      14.251409    -14.697216      7.138134
  H      16.632027    -12.637291      8.497823
  H      16.145807    -11.189296      7.649680
  C       8.412999    -16.813004     15.233001
  C       9.862965    -17.140678     15.618800
  N      10.554895    -16.047708     16.304747
  C      10.891713    -14.900972     15.678621
  N      10.762550    -14.789640     14.358920
  N      11.321362    -13.840133     16.379494
  H       7.736528    -17.001581     16.066622
  H       8.096520    -17.459409     14.406797
  H       8.309357    -15.775359     14.906804
  H       9.904449    -18.003168     16.287467
  H      10.451674    -17.417112     14.737406
  H      10.546485    -16.037510     17.315030
  H      11.132936    -13.933372     13.877128
  H      10.606229    -15.610377     13.793681
  H      11.847854    -13.099859     15.866077
  H      11.538194    -13.966402     17.358583
  C      13.998001     -9.220000      7.724999
  O      15.343937     -9.517021      8.091210
  C      13.925007     -7.906363      6.952000
  H      13.329681     -9.174595      8.584877
  H      13.616337    -10.037849      7.099458
  H      15.506422     -9.241664      9.028638
  H      14.265505     -7.074018      7.577943
  H      14.565198     -7.948062      6.063665
  H      12.897308     -7.698469      6.629148
  C      14.518001     -6.670000     12.632999
  S      13.579080     -8.168939     13.109249
  H      14.324364     -6.427596     11.588086
  H      15.588660     -6.841870     12.765615
  H      14.191904     -5.844789     13.269272
  H      14.192693     -8.949478     12.197213
  C      20.972000     -6.019000     10.963999
  C      20.069655     -7.035671     11.684348
  C      18.770717     -7.462795     10.959054
  O      17.949952     -8.127375     11.698221
  O      18.616507     -7.200510      9.750137
  H      20.586780     -5.000259     11.007275
  H      21.073510     -6.293109      9.909192
  H      21.971788     -6.007055     11.415113
  H      20.622775     -7.972410     11.832687
  H      19.801253     -6.683301     12.688336
  C      19.312999    -20.521999      7.175001
  C      18.248889    -19.517900      7.561088
  C      16.905827    -19.722928      7.214619
  C      18.559456    -18.354149      8.278320
  C      15.911627    -18.817555      7.576923
  C      17.577803    -17.432087      8.649083
  C      16.238469    -17.667620      8.308920
  O      15.223820    -16.834825      8.662468
  H      19.761228    -20.307815      6.204785
  H      18.896928    -21.534117      7.118945
  H      20.127540    -20.535618      7.907789
  H      16.629541    -20.617178      6.659953
  H      19.591814    -18.162516      8.562742
  H      14.871703    -18.992031      7.317281
  H      17.841926    -16.532250      9.199124
  H      15.540622    -16.113103      9.262648
  C      19.522001    -11.465000      7.842998
  C      19.198179    -10.573054      9.039909
  N      19.252078    -11.308482     10.289248
  C      20.167293    -11.058600     11.265319
  O      21.096476    -10.246690     11.155706
  N      20.004358    -11.842218     12.403668
  H      19.317472    -10.958064      6.899981
  H      18.917692    -12.377634      7.861373
  H      20.576775    -11.763237      7.856574
  H      19.896544     -9.739154      9.119862
  H      18.199709    -10.131601      8.926090
  H      18.590501    -12.076015     10.404234
  H      20.493199    -11.458181     13.202379
  H      19.047687    -12.126428     12.606973
114
Coordinates from ORCA-job 02_dft_opt_cit_react E -2995.451091503553
  C      16.287454    -11.076083     12.433509
  C      15.100957    -11.256710     13.326975
  C      13.926363    -11.666011     12.811439
  C      13.742470    -11.748927     11.361943
  C      14.676692    -11.322034     10.502815
  C      15.953868    -10.688740     10.977500
  C      12.810141    -12.167182     13.692308
  O      12.899043    -12.041353     14.940082
  O      11.861065    -12.751594     13.067802
  O      15.807806     -9.272453     10.810299
  O      17.059160    -12.345017     12.461098
  C      16.394516    -13.518557     12.155024
  C      16.390579    -13.936491     10.703182
  O      17.280378    -13.471584      9.946182
  O      15.472366    -14.746808     10.333600
  C      15.849731    -14.272469     13.113216
  H      17.006749    -10.354551     12.823917
  H      15.240421    -11.210559     14.401421
  H      12.812643    -12.174813     11.005967
  H      14.506485    -11.369943      9.436320
  H      16.796218    -11.036639     10.379417
  H      16.689464     -8.792857     11.077120
  H      15.338001    -15.194297     12.866803
  H      15.887356    -13.965669     14.152600
  O      12.874453    -15.009243     11.566629
  H      13.765679    -14.817880     11.210889
  H      12.582177    -14.178607     11.989598
  C      12.785000    -13.909001      5.224001
  C      13.439106    -12.531717      5.306105
  N      14.810285    -12.487053      5.840777
  C      15.224258    -12.897680      7.061318
  N      14.712816    -13.976740      7.654296
  N      16.212035    -12.213273      7.651391
  H      13.453745    -14.682279      4.845952
  H      11.924123    -13.847621      4.550153
  H      12.403984    -14.231691      6.197472
  H      13.520642    -12.103962      4.304283
  H      12.803565    -11.861035      5.896693
  H      15.369172    -11.723471      5.479592
  H      15.003318    -14.217146      8.611201
  H      14.262432    -14.705438      7.121072
  H      16.632254    -12.636567      8.489258
  H      16.142373    -11.188311      7.642835
  C       8.412999    -16.813004     15.233001
  C       9.862790    -17.141495     15.618962
  N      10.555726    -16.048635     16.303365
  C      10.895171    -14.902976     15.675796
  N      10.766293    -14.794483     14.355939
  N      11.325599    -13.842842     16.377167
  H       7.736528    -17.001581     16.066622
  H       8.094773    -17.460291     14.408019
  H       8.310002    -15.775578     14.905995
  H       9.903085    -18.003652     16.288224
  H      10.451194    -17.420737     14.738176
  H      10.544597    -16.036536     17.313615
  H      11.139330    -13.940868     13.871329
  H      10.611714    -15.618067     13.794269
  H      11.850447    -13.101665     15.863161
  H      11.543076    -13.971192     17.355805
  C      13.998001     -9.220000      7.724999
  O      15.345827     -9.511638      8.088548
  C      13.919026     -7.906890      6.951120
  H      13.329681     -9.174595      8.584877
  H      13.617318    -10.038553      7.099995
  H      15.508324     -9.240964      9.027593
  H      14.258002     -7.072990      7.575871
  H      14.557495     -7.947066      6.061445
  H      12.889775     -7.702755      6.630705
  C      14.518001     -6.670000     12.632999
  S      13.580562     -8.169932     13.108063
  H      14.324364     -6.427596     11.588086
  H      15.588907     -6.839398     12.766815
  H      14.189310     -5.845683     13.269188
  H      14.192160     -8.950153     12.194068
  C      20.972000     -6.019000     10.963999
  C      20.069354     -7.035309     11.684157
  C      18.770456     -7.464808     10.957100
  O      17.948780     -8.127210     11.695998
  O      18.620622     -7.204101      9.747263
  H      20.586780     -5.000259     11.007275
  H      21.074123     -6.291750      9.908821
  H      21.972068     -6.006609     11.414594
  H      20.623331     -7.971134     11.834780
  H      19.799206     -6.681126     12.687077
  C      19.312999    -20.521999      7.175001
  C      18.248056    -19.517924      7.560372
  C      16.905890    -19.721356      7.207623
  C      18.556382    -18.356900      8.282513
  C      15.911118    -18.816518      7.569484
  C      17.573528    -17.435549      8.652726
  C      16.235367    -17.669054      8.307063
  O      15.219500    -16.838125      8.660557
  H      19.761228    -20.307815      6.204785
  H      18.896905    -21.534147      7.119953
  H      20.127556    -20.534481      7.907814
  H      16.631566    -20.613487      6.648648
  H      19.587933    -18.167153      8.571133
  H      14.871892    -18.989609      7.305501
  H      17.836441    -16.537820      9.206837
  H      15.533719    -16.117489      9.263608
  C      19.522001    -11.465000      7.842998
  C      19.200609    -10.572393      9.039588
  N      19.253710    -11.309231     10.288847
  C      20.169074    -11.061630     11.265402
  O      21.097808    -10.249079     11.158919
  N      20.007448    -11.850757     12.400685
  H      19.317472    -10.958064      6.899981
  H      18.913899    -12.374605      7.862193
  H      20.575894    -11.766257      7.854152
  H      19.899477     -9.739038      9.120745
  H      18.202658    -10.129544      8.925944
  H      18.591039    -12.075724     10.403090
  H      20.497313    -11.469905     13.200372
  H      19.051365    -12.136060     12.605268
114
Coordinates from ORCA-job 02_dft_opt_cit_react E -2995.451156559016
  C      16.287547    -11.080939     12.426093
  C      15.101506    -11.261649     13.320553
  C      13.925733    -11.668730     12.806183
  C      13.740129    -11.749438     11.356456
  C      14.674166    -11.324016     10.496476
  C      15.952854    -10.692311     10.970284
  C      12.809566    -12.171707     13.686750
  O      12.897969    -12.043768     14.934487
  O      11.862612    -12.759133     13.062115
  O      15.807445     -9.275397     10.806280
  O      17.059876    -12.348955     12.454889
  C      16.395748    -13.521933     12.146210
  C      16.388326    -13.935019     10.692844
  O      17.275672    -13.466004      9.935251
  O      15.470483    -14.745999     10.323994
  C      15.854130    -14.280197     13.102860
  H      17.006311    -10.358046     12.815073
  H      15.243328    -11.217420     14.394833
  H      12.809058    -12.171817     10.999536
  H      14.500394    -11.372070      9.430423
  H      16.793011    -11.040224     10.369014
  H      16.687785     -8.795340     11.075827
  H      15.342375    -15.201109     12.853005
  H      15.894796    -13.977410     14.143383
  O      12.876506    -15.017441     11.562982
  H      13.766521    -14.826706     11.203687
  H      12.585463    -14.185725     11.984867
  C      12.785000    -13.909001      5.224001
  C      13.440069    -12.531522      5.295333
  N      14.811269    -12.484383      5.831144
  C      15.226732    -12.897644      7.050960
  N      14.726646    -13.986444      7.636017
  N      16.206582    -12.206965      7.646293
  H      13.453745    -14.682279      4.845952
  H      11.922191    -13.852257      4.552198
  H      12.409069    -14.226915      6.200856
  H      13.522883    -12.112532      4.289856
  H      12.805626    -11.854183      5.879513
  H      15.364690    -11.713714      5.476368
  H      15.012051    -14.224136      8.595015
  H      14.283527    -14.716052      7.098219
  H      16.631955    -12.632190      8.480861
  H      16.131850    -11.181916      7.641101
  C       8.412999    -16.813004     15.233001
  C       9.862906    -17.140702     15.621005
  N      10.554842    -16.046822     16.303893
  C      10.896220    -14.902746     15.674018
  N      10.768784    -14.798217     14.353590
  N      11.326552    -13.841567     16.373650
  H       7.736528    -17.001581     16.066622
  H       8.094589    -17.461279     14.408816
  H       8.309946    -15.775767     14.905347
  H       9.901443    -18.001713     16.291868
  H      10.451449    -17.422517     14.741139
  H      10.541294    -16.032399     17.314105
  H      11.144554    -13.947064     13.865873
  H      10.616959    -15.624314     13.794766
  H      11.851336    -13.100429     15.858992
  H      11.541676    -13.968184     17.353045
  C      13.998001     -9.220000      7.724999
  O      15.347513     -9.505819      8.087617
  C      13.914183     -7.907512      6.949807
  H      13.329681     -9.174595      8.584877
  H      13.618568    -10.039679      7.100403
  H      15.508782     -9.240688      9.028811
  H      14.251116     -7.072354      7.574055
  H      14.552199     -7.946467      6.059718
  H      12.883678     -7.707479      6.630736
  C      14.518001     -6.670000     12.632999
  S      13.581897     -8.170137     13.109177
  H      14.324364     -6.427596     11.588086
  H      15.589508     -6.835652     12.767203
  H      14.186992     -5.846156     13.268829
  H      14.190766     -8.952184     12.194170
  C      20.972000     -6.019000     10.963999
  C      20.068243     -7.034826     11.684097
  C      18.770448     -7.466677     10.954894
  O      17.946855     -8.126389     11.693664
  O      18.624861     -7.209071      9.743719
  H      20.586780     -5.000259     11.007275
  H      21.074665     -6.291008      9.908637
  H      21.972075     -6.006776     11.414648
  H      20.623608     -7.969447     11.836760
  H      19.795957     -6.678681     12.685703
  C      19.312999    -20.521999      7.175001
  C      18.246547    -19.518375      7.559451
  C      16.904909    -19.722111      7.203483
  C      18.552718    -18.358085      8.283641
  C      15.909102    -18.817900      7.564407
  C      17.568303    -17.437575      8.652547
  C      16.230749    -17.670604      8.303903
  O      15.214302    -16.840115      8.655379
  H      19.761228    -20.307815      6.204785
  H      18.897159    -21.534315      7.121388
  H      20.127385    -20.532310      7.908077
  H      16.632285    -20.613766      6.642930
  H      19.583654    -18.168438      8.574559
  H      14.870519    -18.991853      7.297815
  H      17.830375    -16.540410      9.208080
  H      15.525614    -16.120807      9.261888
  C      19.522001    -11.465000      7.842998
  C      19.200782    -10.571140      9.038747
  N      19.252490    -11.308735     10.288149
  C      20.167776    -11.063565     11.265345
  O      21.096416    -10.250244     11.161854
  N      20.007602    -11.857348     12.397866
  H      19.317472    -10.958064      6.899981
  H      18.911758    -12.373034      7.864013
  H      20.575617    -11.767122      7.854164
  H      19.899592     -9.737933      9.121749
  H      18.203329    -10.127313      8.923611
  H      18.589291    -12.074888     10.400988
  H      20.497686    -11.477831     13.198145
  H      19.051884    -12.143709     12.602853
114
Coordinates from ORCA-job 02_dft_opt_cit_react E -2995.451209230780
  C      16.288361    -11.085445     12.418339
  C      15.103114    -11.267175     13.313918
  C      13.926466    -11.673292     12.800580
  C      13.739463    -11.753098     11.350835
  C      14.672887    -11.327952     10.490078
  C      15.951986    -10.696111     10.962917
  C      12.811646    -12.177259     13.681873
  O      12.900481    -12.047384     14.929545
  O      11.864978    -12.766867     13.058565
  O      15.806638     -9.278690     10.801877
  O      17.062199    -12.352624     12.448598
  C      16.399242    -13.525360     12.137424
  C      16.387806    -13.933278     10.682769
  O      17.273503    -13.460393      9.925209
  O      15.470661    -14.745013     10.313571
  C      15.860257    -14.287970     13.092236
  H      17.006478    -10.361338     12.806262
  H      15.246730    -11.224412     14.388009
  H      12.807457    -12.173075     10.993415
  H      14.496940    -11.376112      9.424259
  H      16.789922    -11.043769     10.358351
  H      16.685562     -8.798233     11.072820
  H      15.348213    -15.207504     12.838206
  H      15.903684    -13.989248     14.133861
  O      12.879750    -15.027091     11.558433
  H      13.768173    -14.835766     11.195548
  H      12.589828    -14.194586     11.979744
  C      12.785000    -13.909001      5.224001
  C      13.441280    -12.531451      5.285857
  N      14.812916    -12.481936      5.821398
  C      15.230104    -12.897327      7.040358
  N      14.737626    -13.992831      7.619607
  N      16.204619    -12.204238      7.640619
  H      13.453745    -14.682279      4.845952
  H      11.920021    -13.855974      4.554760
  H      12.413942    -14.222926      6.203924
  H      13.524855    -12.120578      4.277014
  H      12.807476    -11.848481      5.864252
  H      15.360899    -11.705086      5.471409
  H      15.019562    -14.228622      8.580040
  H      14.299128    -14.722160      7.077816
  H      16.633947    -12.631695      8.472237
  H      16.128876    -11.179384      7.636385
  C       8.412999    -16.813004     15.233001
  C       9.863045    -17.139113     15.623924
  N      10.552887    -16.043734     16.305914
  C      10.896194    -14.901674     15.673565
  N      10.770092    -14.800538     14.352534
  N      11.327475    -13.838909     16.369999
  H       7.736528    -17.001581     16.066622
  H       8.095911    -17.461879     14.408832
  H       8.309414    -15.775829     14.905177
  H       9.900011    -17.998780     16.296566
  H      10.452294    -17.422288     14.745042
  H      10.537623    -16.027088     17.316090
  H      11.149594    -13.952118     13.861941
  H      10.617991    -15.627848     13.795521
  H      11.853838    -13.098986     15.854593
  H      11.539826    -13.962089     17.350487
  C      13.998001     -9.220000      7.724999
  O      15.348502     -9.502590      8.086524
  C      13.911259     -7.907461      6.949611
  H      13.329681     -9.174595      8.584877
  H      13.619617    -10.040070      7.100129
  H      15.509198     -9.242507      9.029516
  H      14.246734     -7.072101      7.574394
  H      14.549397     -7.945064      6.059556
  H      12.880035     -7.710096      6.631167
  C      14.518001     -6.670000     12.632999
  S      13.586246     -8.171867     13.111340
  H      14.324364     -6.427596     11.588086
  H      15.590478     -6.829983     12.767183
  H      14.183766     -5.846966     13.268406
  H      14.193163     -8.954602     12.195003
  C      20.972000     -6.019000     10.963999
  C      20.066979     -7.034430     11.684099
  C      18.771053     -7.467634     10.953104
  O      17.945649     -8.126132     11.691342
  O      18.627619     -7.212264      9.741023
  H      20.586780     -5.000259     11.007275
  H      21.075012     -6.291197      9.908728
  H      21.971784     -6.007306     11.415289
  H      20.623660     -7.967965     11.838318
  H      19.792943     -6.676894     12.684647
  C      19.312999    -20.521999      7.175001
  C      18.244731    -19.519188      7.558159
  C      16.903844    -19.722767      7.198813
  C      18.548683    -18.359316      8.284234
  C      15.906831    -18.818812      7.557818
  C      17.562917    -17.439207      8.650816
  C      16.226062    -17.671461      8.298372
  O      15.209373    -16.840016      8.646034
  H      19.761228    -20.307815      6.204785
  H      18.898118    -21.534774      7.122673
  H      20.126984    -20.529639      7.908558
  H      16.632663    -20.614167      6.637106
  H      19.578788    -18.169645      8.578091
  H      14.869082    -18.993587      7.288148
  H      17.824117    -16.542409      9.207425
  H      15.517793    -16.123557      9.257558
  C      19.522002    -11.465000      7.842998
  C      19.201634    -10.569788      9.038521
  N      19.252866    -11.307663     10.288028
  C      20.167734    -11.063646     11.265685
  O      21.095854    -10.248953     11.163973
  N      20.009340    -11.859952     12.396700
  H      19.317472    -10.958064      6.899981
  H      18.910052    -12.371716      7.866587
  H      20.575281    -11.768185      7.855163
  H      19.900921     -9.737091      9.122479
  H      18.204766    -10.124751      8.922495
  H      18.589392    -12.073546     10.400291
  H      20.498315    -11.479158     13.197094
  H      19.053978    -12.147986     12.601199
114
Coordinates from ORCA-job 02_dft_opt_cit_react E -2995.451239588796
  C      16.289169    -11.088287     12.411834
  C      15.105287    -11.271160     13.309069
  C      13.927626    -11.676649     12.797069
  C      13.738599    -11.756012     11.347734
  C      14.670867    -11.330640     10.485919
  C      15.950334    -10.698530     10.957185
  C      12.815203    -12.181139     13.680062
  O      12.905677    -12.051034     14.927668
  O      11.867173    -12.771313     13.058783
  O      15.805335     -9.280695     10.798409
  O      17.063994    -12.355343     12.442461
  C      16.401697    -13.527683     12.129387
  C      16.387374    -13.931548     10.673923
  O      17.272098    -13.455755      9.916704
  O      15.471307    -14.743723     10.303436
  C      15.863789    -14.293047     13.082647
  H      17.007506    -10.364055     12.799095
  H      15.250544    -11.229911     14.382945
  H      12.805630    -12.174749     10.991359
  H      14.494047    -11.379412      9.420185
  H      16.786238    -11.046312     10.349764
  H      16.683613     -8.800615     11.069412
  H      15.351118    -15.211158     12.825259
  H      15.908675    -13.997154     14.125018
  O      12.882290    -15.032980     11.553346
  H      13.769006    -14.840532     11.186860
  H      12.593860    -14.200294     11.975372
  C      12.785000    -13.909001      5.224001
  C      13.442263    -12.531353      5.278043
  N      14.814303    -12.478621      5.812960
  C      15.234107    -12.895441      7.030839
  N      14.749179    -13.997050      7.605247
  N      16.202924    -12.198423      7.635217
  H      13.453745    -14.682279      4.845952
  H      11.917795    -13.858294      4.557602
  H      12.418005    -14.219765      6.206407
  H      13.526305    -12.127716      4.266241
  H      12.808228    -11.844046      5.851070
  H      15.356211    -11.695673      5.466924
  H      15.028718    -14.232097      8.566419
  H      14.315061    -14.726248      7.059925
  H      16.635171    -12.628468      8.464410
  H      16.124304    -11.173760      7.632913
  C       8.412999    -16.813004     15.233001
  C       9.862938    -17.138930     15.625797
  N      10.551967    -16.042963     16.307682
  C      10.896590    -14.902351     15.673872
  N      10.771646    -14.802730     14.352421
  N      11.328732    -13.838326     16.367654
  H       7.736528    -17.001581     16.066622
  H       8.097290    -17.461336     14.407986
  H       8.309489    -15.775564     14.905900
  H       9.898639    -17.997768     16.299502
  H      10.452736    -17.422389     14.747473
  H      10.536090    -16.025077     17.317836
  H      11.153997    -13.955862     13.860690
  H      10.618693    -15.629976     13.795532
  H      11.857514    -13.099835     15.852371
  H      11.537514    -13.957701     17.349422
  C      13.998001     -9.220000      7.724999
  O      15.349102     -9.499883      8.085926
  C      13.909313     -7.908290      6.948250
  H      13.329681     -9.174595      8.584877
  H      13.620176    -10.041150      7.100909
  H      15.508926     -9.243901      9.030335
  H      14.243462     -7.072099      7.572623
  H      14.547836     -7.945708      6.058469
  H      12.877810     -7.713119      6.629388
  C      14.518001     -6.670000     12.632999
  S      13.590204     -8.173334     13.113610
  H      14.324364     -6.427596     11.588086
  H      15.591160     -6.826300     12.766687
  H      14.182029     -5.847441     13.268182
  H      14.195917     -8.956462     12.196791
  C      20.972000     -6.019000     10.963999
  C      20.066267     -7.034506     11.683918
  C      18.771774     -7.467477     10.952243
  O      17.945539     -8.126665     11.689722
  O      18.627806     -7.212113      9.740135
  H      20.586780     -5.000259     11.007275
  H      21.075059     -6.291999      9.908991
  H      21.971368     -6.007900     11.416151
  H      20.623876     -7.967458     11.838278
  H      19.791718     -6.677026     12.684291
  C      19.312999    -20.521999      7.175001
  C      18.242976    -19.520454      7.556797
  C      16.902720    -19.725033      7.196392
  C      18.545061    -18.359764      8.282744
  C      15.904320    -18.821599      7.553465
  C      17.558154    -17.440157      8.647214
  C      16.221792    -17.673278      8.292984
  O      15.204641    -16.840739      8.637055
  H      19.761228    -20.307815      6.204785
  H      18.899814    -21.535503      7.123362
  H      20.126493    -20.527287      7.909100
  H      16.632564    -20.617102      6.635199
  H      19.574520    -18.168832      8.578028
  H      14.867236    -18.997984      7.282388
  H      17.818323    -16.542766      9.203340
  H      15.511205    -16.126773      9.252246
  C      19.522001    -11.465000      7.842998
  C      19.201770    -10.568881      9.038476
  N      19.252588    -11.306282     10.288087
  C      20.167235    -11.062720     11.265774
  O      21.094568    -10.246674     11.164647
  N      20.010449    -11.859772     12.396409
  H      19.317472    -10.958064      6.899981
  H      18.909635    -12.371474      7.868294
  H      20.575115    -11.768584      7.857136
  H      19.901551     -9.736610      9.122513
  H      18.205251    -10.123277      8.921738
  H      18.589247    -12.072332     10.400025
  H      20.497496    -11.476270     13.196713
  H      19.055265    -12.149280     12.599859
114
Coordinates from ORCA-job 02_dft_opt_cit_react E -2995.451262942923
  C      16.291648    -11.089671     12.406784
  C      15.109486    -11.273582     13.306010
  C      13.930893    -11.679096     12.795736
  C      13.739273    -11.758467     11.347061
  C      14.669932    -11.332588     10.483812
  C      15.949794    -10.700078     10.953028
  C      12.821360    -12.184383     13.680971
  O      12.914234    -12.055708     14.928508
  O      11.871383    -12.774001     13.061641
  O      15.804506     -9.281919     10.796097
  O      17.067149    -12.356943     12.437280
  C      16.405111    -13.529196     12.123392
  C      16.389069    -13.930776     10.667527
  O      17.273386    -13.452957      9.910927
  O      15.473842    -14.742851     10.295558
  C      15.867722    -14.295770     13.075936
  H      17.010632    -10.365754     12.793353
  H      15.256320    -11.233649     14.379665
  H      12.805550    -12.177606     10.993131
  H      14.493267    -11.382787      9.418089
  H      16.783821    -11.047616     10.342932
  H      16.682790     -8.802503     11.066263
  H      15.354761    -15.213093     12.816730
  H      15.912915    -14.001145     14.118606
  O      12.886564    -15.036549     11.549516
  H      13.771617    -14.842728     11.179766
  H      12.599371    -14.204157     11.972834
  C      12.785000    -13.909001      5.224001
  C      13.442576    -12.531231      5.272583
  N      14.814657    -12.475621      5.807212
  C      15.236629    -12.893688      7.023961
  N      14.755857    -13.998665      7.595656
  N      16.202337    -12.195562      7.631420
  H      13.453745    -14.682279      4.845952
  H      11.915944    -13.859357      4.560058
  H      12.420710    -14.217755      6.208019
  H      13.526962    -12.132988      4.258605
  H      12.807721    -11.841117      5.841295
  H      15.352520    -11.689049      5.463006
  H      15.035093    -14.234202      8.556684
  H      14.324057    -14.727700      7.048364
  H      16.636542    -12.627762      8.458583
  H      16.124033    -11.171092      7.629437
  C       8.412999    -16.813004     15.233001
  C       9.862534    -17.140649     15.626117
  N      10.552523    -16.045412     16.308649
  C      10.898895    -14.905692     15.674652
  N      10.774510    -14.805480     14.353165
  N      11.332928    -13.841799     16.367384
  H       7.736528    -17.001581     16.066622
  H       8.097837    -17.459802     14.406686
  H       8.310423    -15.775013     14.907354
  H       9.897194    -17.999458     16.299853
  H      10.452537    -17.423683     14.747869
  H      10.537045    -16.027506     17.318801
  H      11.159186    -13.959446     13.861727
  H      10.617951    -15.631300     13.795219
  H      11.864026    -13.104538     15.852846
  H      11.539709    -13.959264     17.349816
  C      13.998001     -9.220000      7.724999
  O      15.349231     -9.498967      8.085224
  C      13.908526     -7.909255      6.946935
  H      13.329681     -9.174595      8.584877
  H      13.620222    -10.042074      7.102030
  H      15.508671     -9.245663      9.030433
  H      14.242067     -7.072231      7.570465
  H      14.547264     -7.947159      6.057350
  H      12.877106     -7.714993      6.627336
  C      14.518001     -6.670000     12.632999
  S      13.594006     -8.174976     13.115086
  H      14.324364     -6.427596     11.588086
  H      15.591529     -6.824399     12.766214
  H      14.181152     -5.847860     13.268205
  H      14.200375     -8.957585     12.198665
  C      20.972000     -6.019000     10.963999
  C      20.066247     -7.034862     11.683697
  C      18.772594     -7.467026     10.952028
  O      17.946497     -8.128067     11.688646
  O      18.626824     -7.210157      9.740459
  H      20.586780     -5.000259     11.007275
  H      21.074897     -6.292972      9.909295
  H      21.971004     -6.008261     11.416862
  H      20.624453     -7.967483     11.837690
  H      19.791809     -6.678156     12.684378
  C      19.312999    -20.521999      7.175001
  C      18.241626    -19.521746      7.555481
  C      16.901677    -19.728428      7.196385
  C      18.542576    -18.359027      8.278969
  C      15.902094    -18.825444      7.551636
  C      17.554936    -17.439752      8.641607
  C      16.218790    -17.675207      8.287962
  O      15.201023    -16.841736      8.629247
  H      19.761228    -20.307815      6.204785
  H      18.901661    -21.536257      7.123422
  H      20.126034    -20.525750      7.909572
  H      16.631979    -20.622087      6.637466
  H      19.571749    -18.165904      8.573792
  H      14.865291    -19.003865      7.281245
  H      17.814157    -16.540777      9.195537
  H      15.506740    -16.130244      9.247258
  C      19.522002    -11.465000      7.842998
  C      19.201870    -10.568623      9.038841
  N      19.253548    -11.305135     10.288584
  C      20.168023    -11.060282     11.265856
  O      21.093858    -10.242622     11.164000
  N      20.012929    -11.856628     12.397246
  H      19.317472    -10.958064      6.899981
  H      18.910006    -12.371843      7.868952
  H      20.575024    -11.768732      7.859003
  H      19.901754     -9.736325      9.121746
  H      18.205164    -10.123479      8.922487
  H      18.590817    -12.071553     10.401236
  H      20.497331    -11.469295     13.197315
  H      19.057975    -12.147774     12.599504
114
Coordinates from ORCA-job 02_dft_opt_cit_react E -2995.451288357224
  C      16.295528    -11.090412     12.402837
  C      15.115514    -11.274872     13.304652
  C      13.935808    -11.680538     12.796810
  C      13.740628    -11.759840     11.348894
  C      14.669152    -11.333543     10.483693
  C      15.949925    -10.701053     10.950181
  C      12.829376    -12.187431     13.684608
  O      12.925563    -12.061811     14.932084
  O      11.877384    -12.775716     13.066877
  O      15.804039     -9.282568     10.794949
  O      17.070965    -12.358198     12.432215
  C      16.408426    -13.530162     12.118068
  C      16.391950    -13.930547     10.661915
  O      17.276050    -13.451051      9.906070
  O      15.477437    -14.742180     10.288439
  C      15.870915    -14.296800     13.070397
  H      17.015758    -10.367175     12.788274
  H      15.264387    -11.236205     14.378042
  H      12.806232    -12.180477     10.998629
  H      14.492884    -11.385901      9.418019
  H      16.781900    -11.048251     10.337094
  H      16.683015     -8.803975     11.063530
  H      15.357681    -15.213710     12.810511
  H      15.915558    -14.002525     14.113131
  O      12.892121    -15.037702     11.546622
  H      13.775391    -14.842570     11.173251
  H      12.606235    -14.206088     11.972019
  C      12.785000    -13.909001      5.224001
  C      13.442369    -12.531040      5.267736
  N      14.813942    -12.472388      5.803181
  C      15.238034    -12.891848      7.018703
  N      14.761663    -14.000081      7.587972
  N      16.200651    -12.191777      7.628428
  H      13.453745    -14.682279      4.845952
  H      11.914325    -13.860092      4.562196
  H      12.422882    -14.215995      6.209329
  H      13.527486    -12.137778      4.251821
  H      12.806263    -11.838474      5.832015
  H      15.348459    -11.682803      5.460667
  H      15.041592    -14.236818      8.548399
  H      14.332391    -14.729559      7.039360
  H      16.636820    -12.625852      8.453764
  H      16.121988    -11.167368      7.626958
  C       8.412999    -16.813004     15.233001
  C       9.861842    -17.144649     15.624803
  N      10.554971    -16.051688     16.308414
  C      10.903761    -14.912283     15.675398
  N      10.779791    -14.809968     14.354163
  N      11.340299    -13.849955     16.368966
  H       7.736528    -17.001581     16.066622
  H       8.096838    -17.457320     14.405197
  H       8.312543    -15.774157     14.909485
  H       9.895238    -18.004197     16.297630
  H      10.451308    -17.427326     14.746110
  H      10.540570    -16.034839     17.318579
  H      11.165998    -13.963809     13.864344
  H      10.618649    -15.633643     13.794440
  H      11.873423    -13.113389     15.855956
  H      11.545755    -13.967492     17.351644
  C      13.998001     -9.220000      7.724999
  O      15.349154     -9.498449      8.084890
  C      13.908185     -7.910584      6.945199
  H      13.329681     -9.174595      8.584877
  H      13.619897    -10.043230      7.103674
  H      15.508242     -9.247141      9.030616
  H      14.241526     -7.072402      7.567215
  H      14.546897     -7.949667      6.055659
  H      12.876965     -7.716710      6.624833
  C      14.518001     -6.670000     12.632999
  S      13.596526     -8.176267     13.115553
  H      14.324364     -6.427596     11.588086
  H      15.591551     -6.824377     12.765982
  H      14.181105     -5.848138     13.268413
  H      14.205622     -8.958294     12.200997
  C      20.972000     -6.019000     10.963999
  C      20.066850     -7.035605     11.683305
  C      18.773382     -7.467111     10.951901
  O      17.947919     -8.129979     11.687826
  O      18.625954     -7.208342      9.740999
  H      20.586780     -5.000259     11.007275
  H      21.074748     -6.293605      9.909496
  H      21.970795     -6.008294     11.417261
  H      20.625629     -7.968011     11.836423
  H      19.792722     -6.680183     12.684568
  C      19.312999    -20.521999      7.175001
  C      18.240504    -19.523001      7.554214
  C      16.900505    -19.733261      7.198652
  C      18.540794    -18.357150      8.273077
  C      15.899794    -18.830922      7.552460
  C      17.552467    -17.438350      8.634327
  C      16.216245    -17.677758      8.283761
  O      15.197628    -16.843879      8.623377
  H      19.761228    -20.307815      6.204785
  H      18.903433    -21.536963      7.123189
  H      20.125678    -20.524814      7.909930
  H      16.631055    -20.629401      6.643594
  H      19.570057    -18.160846      8.565435
  H      14.862897    -19.012177      7.284824
  H      17.810704    -16.536831      9.184464
  H      15.503360    -16.134395      9.243120
  C      19.522001    -11.465000      7.842998
  C      19.201620    -10.568701      9.039049
  N      19.254869    -11.303935     10.289082
  C      20.169418    -11.056772     11.265564
  O      21.093427    -10.237544     11.162277
  N      20.015960    -11.851945     12.398194
  H      19.317472    -10.958064      6.899981
  H      18.911281    -12.372834      7.868757
  H      20.575158    -11.768160      7.860605
  H      19.901137     -9.735911      9.120042
  H      18.204359    -10.124790      8.923629
  H      18.593180    -12.071038     10.402924
  H      20.497259    -11.460539     13.198164
  H      19.061281    -12.144847     12.599207
114
Coordinates from ORCA-job 02_dft_opt_cit_react E -2995.450706911097
  C      16.290296    -11.089291     12.397236
  C      15.110909    -11.274386     13.299798
  C      13.930147    -11.677649     12.792256
  C      13.733609    -11.754180     11.344630
  C      14.661767    -11.325323     10.479372
  C      15.943261    -10.696233     10.946517
  C      12.824039    -12.181551     13.681503
  O      12.922265    -12.058357     14.928954
  O      11.868192    -12.765323     13.064940
  O      15.798649     -9.276754     10.796323
  O      17.065021    -12.357830     12.423439
  C      16.401408    -13.529885     12.110117
  C      16.384242    -13.931157     10.653981
  O      17.269235    -13.451416      9.898838
  O      15.468186    -14.742614     10.280512
  C      15.864494    -14.295374     13.063896
  H      17.011464    -10.367907     12.784676
  H      15.260263    -11.237679     14.373107
  H      12.799275    -12.175307     10.994331
  H      14.484968    -11.374056      9.413886
  H      16.774294    -11.041711     10.331164
  H      16.680228     -8.800845     11.061716
  H      15.351811    -15.212697     12.805246
  H      15.908851    -14.000055     14.106261
  O      12.882626    -15.027376     11.544554
  H      13.765808    -14.834971     11.170583
  H      12.600067    -14.193471     11.967304
  C      12.785000    -13.909001      5.224001
  C      13.440846    -12.530863      5.253171
  N      14.811898    -12.466022      5.790758
  C      15.236674    -12.886024      7.005536
  N      14.772345    -14.009804      7.568696
  N      16.189931    -12.174330      7.624866
  H      13.453745    -14.682279      4.845952
  H      11.909364    -13.865117      4.568075
  H      12.430375    -14.210553      6.214213
  H      13.528778    -12.149093      4.231774
  H      12.802647    -11.830688      5.808449
  H      15.340736    -11.663947      5.455516
  H      15.055051    -14.245195      8.530683
  H      14.352537    -14.748604      7.015100
  H      16.629153    -12.610108      8.447612
  H      16.100526    -11.141857      7.628024
  C       8.412999    -16.813004     15.233001
  C       9.861800    -17.141169     15.625496
  N      10.551869    -16.046093     16.309640
  C      10.899909    -14.907073     15.676404
  N      10.778824    -14.806794     14.354769
  N      11.332916    -13.842170     16.369001
  H       7.736528    -17.001581     16.066622
  H       8.099301    -17.458928     14.405587
  H       8.310543    -15.774960     14.907742
  H       9.898389    -18.000669     16.298229
  H      10.453079    -17.421579     14.747317
  H      10.539313    -16.029633     17.319814
  H      11.159985    -13.958272     13.865713
  H      10.618632    -15.631427     13.796198
  H      11.867751    -13.106968     15.855942
  H      11.534597    -13.957585     17.352841
  C      13.998001     -9.220000      7.724999
  O      15.357400     -9.473579      8.087034
  C      13.883781     -7.919863      6.924131
  H      13.329681     -9.174595      8.584877
  H      13.632461    -10.062400      7.115931
  H      15.507239     -9.229357      9.037968
  H      14.205295     -7.063004      7.534226
  H      14.521476     -7.962082      6.033827
  H      12.846800     -7.746908      6.598457
  C      14.518001     -6.670000     12.632999
  S      13.590266     -8.173544     13.118144
  H      14.324364     -6.427596     11.588086
  H      15.591791     -6.830452     12.764217
  H      14.186066     -5.845004     13.268404
  H      14.189432     -8.955324     12.196894
  C      20.972000     -6.019000     10.963999
  C      20.066579     -7.036339     11.681473
  C      18.773032     -7.464731     10.950552
  O      17.946830     -8.128453     11.685675
  O      18.624295     -7.204603      9.740011
  H      20.586780     -5.000259     11.007275
  H      21.076469     -6.293591      9.909693
  H      21.969956     -6.008210     11.419144
  H      20.623578     -7.969929     11.833436
  H      19.793761     -6.683211     12.683980
  C      19.312999    -20.521999      7.175001
  C      18.236543    -19.526910      7.554125
  C      16.886398    -19.753605      7.208264
  C      18.542354    -18.348614      8.264292
  C      15.880878    -18.856100      7.563082
  C      17.550322    -17.433668      8.626326
  C      16.203825    -17.690628      8.285525
  O      15.179743    -16.861705      8.628782
  H      19.761228    -20.307815      6.204785
  H      18.908128    -21.538924      7.123438
  H      20.125821    -20.521754      7.909836
  H      16.611645    -20.659860      6.660588
  H      19.579256    -18.139240      8.549631
  H      14.835682    -19.051220      7.303823
  H      17.813141    -16.522280      9.169262
  H      15.489395    -16.149442      9.246471
  C      19.522001    -11.465000      7.842998
  C      19.195538    -10.572061      9.041856
  N      19.250623    -11.307674     10.291930
  C      20.167186    -11.061318     11.266624
  O      21.091300    -10.242638     11.161409
  N      20.014198    -11.855044     12.400143
  H      19.317472    -10.958064      6.899981
  H      18.912968    -12.373954      7.864398
  H      20.576459    -11.766438      7.862209
  H      19.892010     -9.735047      9.124359
  H      18.195353    -10.132478      8.926168
  H      18.589692    -12.075260     10.407543
  H      20.495859    -11.463699     13.200058
  H      19.059366    -12.148069     12.601297
114
Coordinates from ORCA-job 02_dft_opt_cit_react E -2995.451122155777
  C      16.291415    -11.089196     12.397075
  C      15.112651    -11.273903     13.300604
  C      13.931486    -11.677534     12.794347
  C      13.733177    -11.753450     11.346410
  C      14.660078    -11.324214     10.480346
  C      15.942581    -10.695162     10.946435
  C      12.825117    -12.183046     13.683958
  O      12.925476    -12.060988     14.931358
  O      11.869271    -12.766319     13.067345
  O      15.796960     -9.275470     10.798375
  O      17.066153    -12.357798     12.421300
  C      16.401304    -13.529289     12.108820
  C      16.384592    -13.930920     10.652463
  O      17.269956    -13.451975      9.897406
  O      15.467753    -14.741794     10.279389
  C      15.863298    -14.294451     13.062549
  H      17.013160    -10.367502     12.782766
  H      15.262846    -11.236940     14.373894
  H      12.797968    -12.174036     10.997784
  H      14.482601    -11.371908      9.414707
  H      16.772630    -11.040072     10.328860
  H      16.679056     -8.800005     11.062898
  H      15.349112    -15.211522     12.804516
  H      15.907816    -13.999288     14.105053
  O      12.883896    -15.025403     11.546283
  H      13.766584    -14.834381     11.170295
  H      12.602068    -14.191562     11.969872
  C      12.785000    -13.909001      5.224001
  C      13.441682    -12.530222      5.249314
  N      14.811484    -12.464821      5.790391
  C      15.235954    -12.885174      7.005279
  N      14.776749    -14.014171      7.564934
  N      16.185913    -12.170820      7.628857
  H      13.453745    -14.682279      4.845952
  H      11.909558    -13.865942      4.567794
  H      12.431769    -14.208325      6.215355
  H      13.532787    -12.153180      4.226185
  H      12.802805    -11.826032      5.799978
  H      15.339601    -11.658752      5.457857
  H      15.060857    -14.248167      8.526862
  H      14.360825    -14.752673      7.011906
  H      16.627609    -12.605636      8.449920
  H      16.093669    -11.137969      7.634038
  C       8.412999    -16.813004     15.233001
  C       9.861634    -17.144892     15.624580
  N      10.554903    -16.051840     16.308594
  C      10.904053    -14.912173     15.676442
  N      10.784864    -14.811603     14.354959
  N      11.335918    -13.848103     16.371421
  H       7.736528    -17.001581     16.066622
  H       8.096757    -17.457017     14.404966
  H       8.312977    -15.774094     14.909537
  H       9.895493    -18.004446     16.297440
  H      10.451322    -17.427143     14.745905
  H      10.541354    -16.035613     17.319041
  H      11.164237    -13.961548     13.866887
  H      10.625602    -15.635348     13.794083
  H      11.870611    -13.112369     15.859478
  H      11.538340    -13.963680     17.355178
  C      13.998001     -9.220000      7.724999
  O      15.357940     -9.466501      8.091871
  C      13.880838     -7.925359      6.915615
  H      13.329681     -9.174595      8.584877
  H      13.641504    -10.071295      7.121234
  H      15.506034     -9.224893      9.043442
  H      14.199365     -7.064785      7.521693
  H      14.519709     -7.971826      6.026195
  H      12.844251     -7.757016      6.588420
  C      14.518001     -6.670000     12.632999
  S      13.588429     -8.172703     13.117300
  H      14.324364     -6.427596     11.588086
  H      15.591664     -6.831469     12.763887
  H      14.186620     -5.845237     13.269108
  H      14.187689     -8.954596     12.195899
  C      20.972000     -6.019000     10.963999
  C      20.066802     -7.036452     11.682072
  C      18.772009     -7.466095     10.950874
  O      17.945413     -8.127363     11.687068
  O      18.625676     -7.207461      9.739695
  H      20.586780     -5.000259     11.007275
  H      21.075475     -6.293100      9.909383
  H      21.970563     -6.008265     11.417893
  H      20.624618     -7.969950     11.832871
  H      19.793710     -6.682998     12.684347
  C      19.312999    -20.521999      7.175001
  C      18.236329    -19.527126      7.555562
  C      16.899046    -19.740374      7.202454
  C      18.527877    -18.364540      8.275147
  C      15.893323    -18.843721      7.559263
  C      17.534903    -17.450803      8.638664
  C      16.202661    -17.692278      8.290263
  O      15.180715    -16.863183      8.635038
  H      19.761228    -20.307815      6.204785
  H      18.905179    -21.537359      7.119985
  H      20.124499    -20.525891      7.911111
  H      16.636329    -20.633203      6.646389
  H      19.552098    -18.168773      8.568710
  H      14.859233    -19.027804      7.294045
  H      17.785294    -16.553183      9.190119
  H      15.489818    -16.150642      9.251834
  C      19.522001    -11.465000      7.842998
  C      19.193396    -10.572748      9.041510
  N      19.250158    -11.308263     10.291507
  C      20.167635    -11.060702     11.265363
  O      21.091487    -10.241860     11.159435
  N      20.015596    -11.855147     12.399039
  H      19.317472    -10.958064      6.899981
  H      18.914567    -12.375260      7.861669
  H      20.576945    -11.763682      7.863094
  H      19.888009     -9.735304      9.123503
  H      18.193448    -10.134413      8.926893
  H      18.590211    -12.076792     10.408206
  H      20.497901    -11.463972     13.198756
  H      19.060939    -12.148303     12.600812
114
Coordinates from ORCA-job 02_dft_opt_cit_react E -2995.448490828986
  C      16.303393    -11.091365     12.396655
  C      15.126644    -11.275333     13.303147
  C      13.943842    -11.677764     12.800776
  C      13.740878    -11.754218     11.353522
  C      14.665889    -11.332789     10.484039
  C      15.952130    -10.702272     10.944356
  C      12.836534    -12.188441     13.688615
  O      12.938116    -12.067091     14.936116
  O      11.885236    -12.774537     13.069460
  O      15.805997     -9.284095     10.790602
  O      17.078655    -12.357471     12.423570
  C      16.417115    -13.528170     12.107271
  C      16.399159    -13.918995     10.648911
  O      17.276664    -13.436186      9.889602
  O      15.489297    -14.727634     10.272672
  C      15.885819    -14.303698     13.055547
  H      17.024693    -10.366647     12.776643
  H      15.281587    -11.238627     14.376096
  H      12.805286    -12.174055     11.007578
  H      14.483973    -11.392234      9.419389
  H      16.778688    -11.050401     10.324557
  H      16.686073     -8.805533     11.062211
  H      15.376227    -15.221555     12.788969
  H      15.932875    -14.017558     14.100764
  O      12.907950    -15.024590     11.538420
  H      13.790081    -14.826687     11.160731
  H      12.620029    -14.198102     11.971742
  C      12.785000    -13.909001      5.224001
  C      13.440039    -12.527056      5.263545
  N      14.809338    -12.459837      5.808913
  C      15.243073    -12.872307      7.025865
  N      14.780817    -13.957231      7.601698
  N      16.203114    -12.176357      7.616695
  H      13.453745    -14.682279      4.845952
  H      11.916486    -13.863439      4.559506
  H      12.422470    -14.213271      6.208550
  H      13.529926    -12.140723      4.247141
  H      12.802866    -11.829749      5.817630
  H      15.337673    -11.694717      5.457726
  H      15.068850    -14.206524      8.546836
  H      14.351007    -14.670701      7.063466
  H      16.638092    -12.605921      8.446252
  H      16.137872    -11.180680      7.611835
  C       8.412999    -16.813004     15.233001
  C       9.862980    -17.144471     15.622061
  N      10.557468    -16.052152     16.303718
  C      10.911150    -14.912845     15.670206
  N      10.784614    -14.807750     14.349567
  N      11.355250    -13.858197     16.367907
  H       7.736528    -17.001581     16.066622
  H       8.092763    -17.460133     14.408468
  H       8.312055    -15.774743     14.907345
  H       9.895669    -18.005062     16.293946
  H      10.450841    -17.429605     14.742838
  H      10.546777    -16.037927     17.313294
  H      11.175514    -13.962548     13.861218
  H      10.618202    -15.628233     13.790578
  H      11.890897    -13.120980     15.856832
  H      11.558860    -13.983840     17.349416
  C      13.998001     -9.220000      7.724999
  O      15.343788     -9.502124      8.082319
  C      13.932028     -7.917869      6.956904
  H      13.329681     -9.174595      8.584877
  H      13.626200    -10.040266      7.106343
  H      15.506180     -9.254927      9.026524
  H      14.287563     -7.108656      7.575939
  H      14.559118     -7.960269      6.059742
  H      12.913390     -7.699233      6.663333
  C      14.518001     -6.670000     12.632999
  S      13.598059     -8.175905     13.112354
  H      14.324364     -6.427596     11.588086
  H      15.591149     -6.821837     12.767889
  H      14.178172     -5.850767     13.268797
  H      14.206132     -8.958851     12.198643
  C      20.972000     -6.019000     10.963999
  C      20.066502     -7.035827     11.681487
  C      18.772053     -7.472097     10.946176
  O      17.947021     -8.132425     11.681402
  O      18.632037     -7.213835      9.734946
  H      20.586780     -5.000259     11.007275
  H      21.076073     -6.290336      9.908520
  H      21.971290     -6.007968     11.416371
  H      20.627640     -7.966287     11.835995
  H      19.789039     -6.678432     12.681133
  C      19.312999    -20.521999      7.175001
  C      18.241623    -19.520518      7.550644
  C      16.907487    -19.725869      7.186147
  C      18.541569    -18.354312      8.269890
  C      15.912043    -18.818280      7.533780
  C      17.555929    -17.431774      8.626116
  C      16.224581    -17.665919      8.268882
  O      15.209152    -16.829203      8.603528
  H      19.761228    -20.307815      6.204785
  H      18.902256    -21.536890      7.127644
  H      20.126034    -20.521341      7.909736
  H      16.638994    -20.622501      6.629214
  H      19.571905    -18.158011      8.563368
  H      14.880351    -18.995819      7.258400
  H      17.817009    -16.526268      9.174696
  H      15.504661    -16.123603      9.226330
  C      19.522001    -11.465000      7.842998
  C      19.205654    -10.565385      9.034548
  N      19.259144    -11.299729     10.285060
  C      20.174151    -11.051859     11.261069
  O      21.098481    -10.233697     11.158913
  N      20.020265    -11.849724     12.393235
  H      19.317472    -10.958064      6.899981
  H      18.907985    -12.374647      7.870229
  H      20.574470    -11.767875      7.861182
  H      19.906193     -9.735209      9.113593
  H      18.209429    -10.119257      8.920973
  H      18.596810    -12.064110     10.399149
  H      20.499000    -11.457835     13.194081
  H      19.066750    -12.144521     12.593450
114
Coordinates from ORCA-job 02_dft_opt_cit_react E -2995.451455546606
  C      16.300233    -11.091334     12.400551
  C      15.122632    -11.276196     13.305587
  C      13.941126    -11.680212     12.800851
  C      13.740967    -11.756746     11.353157
  C      14.667144    -11.329836     10.485732
  C      15.950348    -10.699461     10.949560
  C      12.836310    -12.189615     13.690420
  O      12.937307    -12.069294     14.938040
  O      11.882185    -12.774384     13.073138
  O      15.803950     -9.280082     10.798660
  O      17.075131    -12.359277     12.425899
  C      16.411573    -13.530900     12.111376
  C      16.395062    -13.929598     10.654357
  O      17.278704    -13.448051      9.899454
  O      15.479987    -14.740661     10.280229
  C      15.875785    -14.299038     13.063363
  H      17.021727    -10.368501     12.784441
  H      15.275017    -11.240044     14.378727
  H      12.805693    -12.178696     11.006774
  H      14.489567    -11.383054      9.420449
  H      16.779127    -11.045307     10.331382
  H      16.684899     -8.802976     11.066373
  H      15.363689    -15.216657     12.803434
  H      15.920821    -14.006392     14.106527
  O      12.897708    -15.030849     11.545354
  H      13.779072    -14.834449     11.168663
  H      12.612506    -14.201288     11.974898
  C      12.785000    -13.909001      5.224001
  C      13.437864    -12.529244      5.261247
  N      14.807824    -12.464284      5.801456
  C      15.234038    -12.885389      7.015541
  N      14.762245    -13.994674      7.585635
  N      16.196421    -12.187477      7.625144
  H      13.453745    -14.682279      4.845952
  H      11.912595    -13.863943      4.564197
  H      12.426406    -14.213681      6.210949
  H      13.525322    -12.141440      4.244216
  H      12.798457    -11.834339      5.818736
  H      15.341923    -11.676565      5.457621
  H      15.051355    -14.234817      8.542619
  H      14.333708    -14.726381      7.038361
  H      16.634648    -12.620011      8.450002
  H      16.121374    -11.161100      7.621435
  C       8.412999    -16.813004     15.233001
  C       9.861510    -17.148087     15.622514
  N      10.557633    -16.057981     16.307683
  C      10.910504    -14.918409     15.676924
  N      10.786763    -14.813126     14.356385
  N      11.350998    -13.859845     16.373445
  H       7.736528    -17.001581     16.066622
  H       8.094193    -17.455771     14.404924
  H       8.314394    -15.773557     14.910748
  H       9.894298    -18.009326     16.293270
  H      10.449694    -17.430116     14.742731
  H      10.545453    -16.043844     17.317834
  H      11.172280    -13.965560     13.869005
  H      10.619414    -15.634229     13.794985
  H      11.886104    -13.123585     15.862093
  H      11.556513    -13.981383     17.355494
  C      13.998001     -9.220000      7.724999
  O      15.350350     -9.488977      8.088770
  C      13.902569     -7.918477      6.933929
  H      13.329681     -9.174595      8.584877
  H      13.638116    -10.057122      7.111863
  H      15.508262     -9.240879      9.034948
  H      14.233307     -7.073437      7.549651
  H      14.540703     -7.963426      6.044174
  H      12.870142     -7.730773      6.611446
  C      14.518001     -6.670000     12.632999
  S      13.594990     -8.175870     13.115760
  H      14.324364     -6.427596     11.588086
  H      15.591120     -6.825924     12.766260
  H      14.181752     -5.848242     13.268392
  H      14.203813     -8.957271     12.200731
  C      20.972000     -6.019000     10.963999
  C      20.067871     -7.036146     11.683454
  C      18.773779     -7.468984     10.951997
  O      17.948709     -8.131127     11.688548
  O      18.627494     -7.210793      9.740802
  H      20.586780     -5.000259     11.007275
  H      21.074500     -6.292904      9.909239
  H      21.971253     -6.007829     11.416350
  H      20.627282     -7.968241     11.836240
  H      19.793337     -6.680828     12.684659
  C      19.312999    -20.521999      7.175001
  C      18.239729    -19.523719      7.553578
  C      16.901523    -19.733289      7.192947
  C      18.537932    -18.358917      8.275457
  C      15.900149    -18.831532      7.545416
  C      17.548689    -17.440732      8.635399
  C      16.213744    -17.679831      8.280345
  O      15.193780    -16.847250      8.620493
  H      19.761228    -20.307815      6.204785
  H      18.903784    -21.537089      7.122998
  H      20.125423    -20.524578      7.910170
  H      16.633790    -20.628821      6.635289
  H      19.566520    -18.162714      8.571022
  H      14.864127    -19.013538      7.274838
  H      17.805267    -16.539556      9.187842
  H      15.499160    -16.140324      9.242547
  C      19.522001    -11.465000      7.842998
  C      19.202703    -10.569758      9.039576
  N      19.258732    -11.304638     10.290175
  C      20.174213    -11.055250     11.265400
  O      21.097593    -10.235915     11.160302
  N      20.021123    -11.849490     12.399236
  H      19.317472    -10.958064      6.899981
  H      18.912751    -12.373404      7.868296
  H      20.575194    -11.767287      7.858951
  H      19.901912     -9.737019      9.118759
  H      18.205420    -10.126240      8.925921
  H      18.597708    -12.071777     10.406657
  H      20.500391    -11.456542     13.199628
  H      19.066755    -12.144122     12.599366
114
Coordinates from ORCA-job 02_dft_opt_cit_react E -2995.451492457471
  C      16.298238    -11.090866     12.395623
  C      15.121852    -11.276482     13.302079
  C      13.939629    -11.679691     12.798496
  C      13.737250    -11.753366     11.351020
  C      14.661557    -11.323740     10.482975
  C      15.945885    -10.695677     10.946180
  C      12.835584    -12.189804     13.688853
  O      12.938676    -12.072050     14.936412
  O      11.880104    -12.772681     13.071878
  O      15.800164     -9.275827     10.799971
  O      17.072158    -12.359268     12.417295
  C      16.406806    -13.529709     12.102913
  C      16.387919    -13.926345     10.645426
  O      17.270440    -13.444146      9.889787
  O      15.471647    -14.735627     10.271179
  C      15.871068    -14.298121     13.054922
  H      17.021027    -10.369472     12.779697
  H      15.275450    -11.241675     14.374960
  H      12.801697    -12.174817     11.005182
  H      14.481660    -11.372713      9.417671
  H      16.772903    -11.040716     10.324817
  H      16.683462     -8.800771     11.064694
  H      15.357429    -15.214862     12.794387
  H      15.916783    -14.006571     14.098408
  O      12.892755    -15.027098     11.543449
  H      13.773405    -14.833345     11.163358
  H      12.611869    -14.195595     11.972012
  C      12.785000    -13.909001      5.224001
  C      13.437348    -12.527978      5.246427
  N      14.805984    -12.454993      5.791489
  C      15.234933    -12.875497      7.005747
  N      14.782332    -14.001722      7.565197
  N      16.182934    -12.160170      7.625196
  H      13.453745    -14.682279      4.845952
  H      11.908792    -13.869028      4.568597
  H      12.433120    -14.207385      6.215767
  H      13.529923    -12.154594      4.222570
  H      12.794421    -11.823634      5.791342
  H      15.328799    -11.647762      5.459943
  H      15.070245    -14.241130      8.523379
  H      14.364480    -14.733862      7.014043
  H      16.624877    -12.594123      8.446656
  H      16.096843    -11.136870      7.628213
  C       8.412999    -16.813004     15.233001
  C       9.860998    -17.149432     15.622697
  N      10.558046    -16.059606     16.307473
  C      10.911508    -14.920256     15.676379
  N      10.793025    -14.817582     14.354961
  N      11.347302    -13.859556     16.373355
  H       7.736528    -17.001581     16.066622
  H       8.093803    -17.455256     14.404736
  H       8.315479    -15.773483     14.910971
  H       9.892861    -18.010266     16.293989
  H      10.449288    -17.432735     14.743374
  H      10.544117    -16.044325     17.317734
  H      11.174785    -13.967907     13.868326
  H      10.630716    -15.640039     13.793653
  H      11.884345    -13.124271     15.862836
  H      11.547239    -13.978201     17.357229
  C      13.998001     -9.220000      7.724999
  O      15.355775     -9.467573      8.092017
  C      13.888964     -7.928068      6.921368
  H      13.329681     -9.174595      8.584877
  H      13.649081    -10.069630      7.121250
  H      15.506680     -9.226575      9.042148
  H      14.219181     -7.079314      7.525388
  H      14.520668     -7.975087      6.027425
  H      12.855883     -7.749193      6.607488
  C      14.518001     -6.670000     12.632999
  S      13.592605     -8.174701     13.114980
  H      14.324364     -6.427596     11.588086
  H      15.591158     -6.828646     12.765360
  H      14.183823     -5.847279     13.269106
  H      14.196312     -8.953804     12.194960
  C      20.972000     -6.019000     10.963999
  C      20.067797     -7.037075     11.681562
  C      18.772554     -7.467243     10.950335
  O      17.947468     -8.129983     11.686172
  O      18.625837     -7.206870      9.739866
  H      20.586780     -5.000259     11.007275
  H      21.075697     -6.292133      9.909104
  H      21.970849     -6.007912     11.417293
  H      20.626719     -7.969946     11.831114
  H      19.794740     -6.684527     12.684181
  C      19.312999    -20.521999      7.175001
  C      18.236726    -19.526182      7.553665
  C      16.895506    -19.743340      7.200380
  C      18.532528    -18.359432      8.271877
  C      15.890468    -18.845791      7.555576
  C      17.539782    -17.445297      8.634382
  C      16.203422    -17.690554      8.285858
  O      15.181709    -16.860335      8.628003
  H      19.761228    -20.307815      6.204785
  H      18.906240    -21.538151      7.123273
  H      20.125360    -20.522737      7.910322
  H      16.629373    -20.639955      6.645470
  H      19.561360    -18.159392      8.563656
  H      14.853530    -19.032496      7.289853
  H      17.794318    -16.543282      9.184101
  H      15.487967    -16.150036      9.247436
  C      19.522001    -11.465000      7.842998
  C      19.199164    -10.571022      9.040277
  N      19.255899    -11.305872     10.290625
  C      20.173971    -11.059014     11.264154
  O      21.098589    -10.241367     11.158448
  N      20.020965    -11.853763     12.397589
  H      19.317472    -10.958064      6.899981
  H      18.912453    -12.374630      7.864183
  H      20.575865    -11.766034      7.860994
  H      19.896721     -9.736368      9.120140
  H      18.200872    -10.129320      8.927153
  H      18.595283    -12.072962     10.408231
  H      20.502002    -11.463130     13.198227
  H      19.066585    -12.147932     12.598030
114
Coordinates from ORCA-job 02_dft_opt_cit_react E -2995.451539739958
  C      16.297114    -11.090305     12.392061
  C      15.121715    -11.275698     13.300024
  C      13.937750    -11.675583     12.797981
  C      13.733084    -11.747441     11.350680
  C      14.657068    -11.318763     10.481818
  C      15.942376    -10.692040     10.944156
  C      12.833898    -12.184895     13.689439
  O      12.939991    -12.069467     14.936914
  O      11.875782    -12.764632     13.073382
  O      15.796556     -9.271341     10.802767
  O      17.069802    -12.358828     12.410918
  C      16.403231    -13.528403     12.096018
  C      16.384886    -13.923954     10.638378
  O      17.267492    -13.442590      9.882590
  O      15.469744    -14.733041     10.262885
  C      15.867121    -14.297525     13.047253
  H      17.020794    -10.369717     12.775970
  H      15.277435    -11.243028     14.372694
  H      12.796338    -12.167384     11.006024
  H      14.477044    -11.369610      9.416795
  H      16.766916    -11.035735     10.318667
  H      16.680492     -8.798295     11.067465
  H      15.353680    -15.214126     12.785706
  H      15.912784    -14.007155     14.091117
  O      12.890801    -15.015475     11.538867
  H      13.770544    -14.821016     11.156793
  H      12.611141    -14.185054     11.969928
  C      12.785000    -13.909001      5.224001
  C      13.435969    -12.527128      5.238528
  N      14.802579    -12.447842      5.788665
  C      15.234018    -12.868479      7.002057
  N      14.791321    -13.998008      7.556851
  N      16.174985    -12.147106      7.623546
  H      13.453745    -14.682279      4.845952
  H      11.906857    -13.872321      4.570978
  H      12.436952    -14.203877      6.218222
  H      13.532196    -12.161443      4.211896
  H      12.790564    -11.818864      5.775388
  H      15.321195    -11.644119      5.458121
  H      15.080150    -14.238660      8.513313
  H      14.384065    -14.735475      7.000856
  H      16.619749    -12.582672      8.443477
  H      16.083036    -11.124067      7.633456
  C       8.412999    -16.813004     15.233001
  C       9.861594    -17.148154     15.621727
  N      10.557947    -16.057945     16.306526
  C      10.912967    -14.918926     15.675567
  N      10.795304    -14.815477     14.354156
  N      11.349855    -13.859288     16.373404
  H       7.736528    -17.001581     16.066622
  H       8.093725    -17.456030     14.405209
  H       8.314604    -15.773643     14.910345
  H       9.894741    -18.009543     16.292385
  H      10.449554    -17.430477     14.741832
  H      10.545800    -16.043720     17.316583
  H      11.175508    -13.964075     13.868606
  H      10.629799    -15.636380     13.792478
  H      11.887533    -13.123766     15.863960
  H      11.548993    -13.979341     17.357062
  C      13.998001     -9.220000      7.724999
  O      15.361346     -9.450055      8.096269
  C      13.872785     -7.935162      6.905437
  H      13.329681     -9.174595      8.584877
  H      13.659067    -10.082474      7.130224
  H      15.505995     -9.214500      9.050172
  H      14.187065     -7.068944      7.504384
  H      14.512018     -7.985798      6.016669
  H      12.834756     -7.774731      6.578149
  C      14.518001     -6.670000     12.632999
  S      13.584823     -8.170320     13.117324
  H      14.324364     -6.427596     11.588086
  H      15.591354     -6.834533     12.763745
  H      14.188815     -5.844387     13.269318
  H      14.183995     -8.954114     12.197840
  C      20.972000     -6.019000     10.963999
  C      20.067942     -7.036479     11.682562
  C      18.772301     -7.467083     10.951746
  O      17.945815     -8.126880     11.688586
  O      18.627143     -7.209267      9.740478
  H      20.586780     -5.000259     11.007275
  H      21.074999     -6.292458      9.909108
  H      21.971162     -6.007757     11.416620
  H      20.627375     -7.968838     11.832675
  H      19.795033     -6.683034     12.684918
  C      19.312999    -20.521999      7.175001
  C      18.235271    -19.527493      7.553364
  C      16.894553    -19.748805      7.204383
  C      18.529810    -18.357432      8.266829
  C      15.888471    -18.852634      7.559525
  C      17.536026    -17.444365      8.628997
  C      16.200186    -17.693669      8.284795
  O      15.176752    -16.865481      8.627906
  H      19.761228    -20.307815      6.204785
  H      18.907196    -21.538493      7.123385
  H      20.125125    -20.521797      7.910593
  H      16.629435    -20.647817      6.653044
  H      19.558162    -18.154511      8.555718
  H      14.852126    -19.043364      7.297302
  H      17.789673    -16.539802      9.175128
  H      15.482194    -16.153110      9.245180
  C      19.522001    -11.465000      7.842998
  C      19.192627    -10.572006      9.040203
  N      19.251311    -11.306223     10.290792
  C      20.169945    -11.057670     11.263118
  O      21.092915    -10.238498     11.156298
  N      20.019415    -11.852556     12.397126
  H      19.317472    -10.958064      6.899981
  H      18.914629    -12.377090      7.860791
  H      20.577604    -11.762145      7.863800
  H      19.886079     -9.732948      9.121299
  H      18.191371    -10.135164      8.926193
  H      18.592193    -12.074080     10.409033
  H      20.499203    -11.459513     13.197230
  H      19.065589    -12.147765     12.598250
114
Coordinates from ORCA-job 02_dft_opt_cit_react E -2995.451611029168
  C      16.300196    -11.093715     12.394409
  C      15.125575    -11.278358     13.303732
  C      13.940839    -11.677412     12.802713
  C      13.734649    -11.748894     11.355342
  C      14.658087    -11.320918     10.485722
  C      15.944084    -10.694328     10.947076
  C      12.838721    -12.189370     13.694863
  O      12.946671    -12.076913     14.942627
  O      11.880114    -12.768426     13.078896
  O      15.798986     -9.273245     10.806098
  O      17.071709    -12.363115     12.411820
  C      16.404655    -13.532248     12.095112
  C      16.387020    -13.926635     10.637026
  O      17.270462    -13.444520      9.882630
  O      15.471149    -14.735391     10.260505
  C      15.867553    -14.301640     13.045362
  H      17.024885    -10.373774     12.777824
  H      15.282988    -11.246985     14.376331
  H      12.797231    -12.168926     11.012394
  H      14.478054    -11.374474      9.420709
  H      16.768178    -11.037572     10.320804
  H      16.683414     -8.800322     11.070812
  H      15.353658    -15.218009     12.783992
  H      15.913447    -14.012024     14.089330
  O      12.891573    -15.018763     11.537600
  H      13.770252    -14.822711     11.153901
  H      12.612045    -14.190096     11.972628
  C      12.785000    -13.909001      5.224001
  C      13.431406    -12.525776      5.241439
  N      14.796968    -12.444408      5.792080
  C      15.228178    -12.869535      7.003417
  N      14.781671    -13.997282      7.559018
  N      16.172319    -12.154138      7.624059
  H      13.453745    -14.682279      4.845952
  H      11.906811    -13.873385      4.570914
  H      12.436700    -14.205728      6.217330
  H      13.526010    -12.156745      4.217332
  H      12.783413    -11.822475      5.779802
  H      15.317741    -11.643486      5.460137
  H      15.072921    -14.238405      8.515349
  H      14.373129    -14.735328      7.002789
  H      16.617905    -12.588807      8.443745
  H      16.079241    -11.126434      7.633202
  C       8.412999    -16.813004     15.233001
  C       9.861085    -17.152985     15.619767
  N      10.561193    -16.066335     16.306305
  C      10.918157    -14.926753     15.677587
  N      10.798645    -14.819761     14.356867
  N      11.359281    -13.870100     16.376918
  H       7.736528    -17.001581     16.066622
  H       8.091262    -17.452907     14.403738
  H       8.317247    -15.772485     14.913120
  H       9.892560    -18.015897     16.288505
  H      10.447140    -17.434806     14.738490
  H      10.549161    -16.053785     17.316446
  H      11.179858    -13.968483     13.872420
  H      10.628405    -15.638662     13.793359
  H      11.896704    -13.133970     15.868245
  H      11.560670    -13.992955     17.359636
  C      13.998001     -9.220000      7.724999
  O      15.357890     -9.456556      8.097259
  C      13.882964     -7.933963      6.914064
  H      13.329681     -9.174595      8.584877
  H      13.662525    -10.077204      7.126088
  H      15.505138     -9.219350      9.049223
  H      14.200796     -7.076302      7.517744
  H      14.523598     -7.983274      6.026331
  H      12.848395     -7.765228      6.588736
  C      14.518001     -6.670000     12.632999
  S      13.586424     -8.170728     13.116944
  H      14.324364     -6.427596     11.588086
  H      15.590313     -6.832962     12.764727
  H      14.187624     -5.846061     13.268721
  H      14.190915     -8.955682     12.201742
  C      20.972000     -6.019000     10.963999
  C      20.068591     -7.036763     11.683289
  C      18.773744     -7.469105     10.952366
  O      17.948391     -8.129938     11.689633
  O      18.627684     -7.211490      9.741091
  H      20.586780     -5.000259     11.007275
  H      21.074630     -6.292626      9.909152
  H      21.971367     -6.007478     11.416104
  H      20.628963     -7.968599     11.834337
  H      19.794639     -6.682642     12.685055
  C      19.312999    -20.521999      7.175001
  C      18.236280    -19.526317      7.552657
  C      16.898082    -19.745458      7.201935
  C      18.531906    -18.354067      8.263789
  C      15.893833    -18.846855      7.554404
  C      17.539617    -17.438924      8.623439
  C      16.204659    -17.687989      8.278762
  O      15.180988    -16.859791      8.620678
  H      19.761228    -20.307815      6.204785
  H      18.906066    -21.537986      7.123369
  H      20.124998    -20.522365      7.910701
  H      16.632072    -20.646942      6.652849
  H      19.560974    -18.149695      8.551543
  H      14.857657    -19.037680      7.292643
  H      17.794492    -16.531483      9.167197
  H      15.484917    -16.150295      9.239981
  C      19.522001    -11.465000      7.842998
  C      19.193920    -10.572172      9.039719
  N      19.252950    -11.306312     10.290189
  C      20.171022    -11.056526     11.262813
  O      21.093245    -10.236238     11.156019
  N      20.020896    -11.851605     12.396790
  H      19.317472    -10.958064      6.899981
  H      18.916300    -12.376639      7.861857
  H      20.577061    -11.761961      7.862204
  H      19.887421     -9.734083      9.120088
  H      18.193351    -10.135329      8.925596
  H      18.594079    -12.074959     10.408147
  H      20.499306    -11.457565     13.197181
  H      19.067114    -12.147670     12.597146
114
Coordinates from ORCA-job 02_dft_opt_cit_react E -2995.451654892289
  C      16.305812    -11.094414     12.396000
  C      15.131837    -11.280079     13.306004
  C      13.947667    -11.681023     12.805462
  C      13.741035    -11.752181     11.358098
  C      14.663010    -11.321602     10.488297
  C      15.948427    -10.694043     10.949318
  C      12.846790    -12.195803     13.697673
  O      12.955006    -12.084966     14.945532
  O      11.889124    -12.775538     13.081261
  O      15.801436     -9.273151     10.809791
  O      17.077390    -12.363850     12.412037
  C      16.410080    -13.532819     12.095334
  C      16.390821    -13.926281     10.636923
  O      17.273863    -13.443271      9.882617
  O      15.473251    -14.733867     10.260936
  C      15.873693    -14.302207     13.045930
  H      17.030700    -10.374699     12.779306
  H      15.289759    -11.248701     14.378461
  H      12.804735    -12.174388     11.015310
  H      14.482312    -11.373501      9.423262
  H      16.772005    -11.036052     10.321731
  H      16.686505     -8.799726     11.072876
  H      15.358812    -15.218116     12.785085
  H      15.920587    -14.012808     14.089906
  O      12.897429    -15.026054     11.540830
  H      13.775260    -14.829241     11.155762
  H      12.618514    -14.197603     11.976802
  C      12.785000    -13.909001      5.224001
  C      13.427173    -12.524917      5.243562
  N      14.791507    -12.439704      5.796065
  C      15.223246    -12.867424      7.006448
  N      14.775481    -13.994255      7.562705
  N      16.169125    -12.155062      7.626339
  H      13.453745    -14.682279      4.845952
  H      11.907287    -13.874194      4.570667
  H      12.435713    -14.207087      6.215952
  H      13.521758    -12.155085      4.220649
  H      12.775516    -11.824929      5.780701
  H      15.310271    -11.631582      5.467543
  H      15.069755    -14.237610      8.518065
  H      14.362414    -14.726531      7.008757
  H      16.615330    -12.588518      8.445632
  H      16.081206    -11.129852      7.629490
  C       8.412999    -16.813004     15.233001
  C       9.860310    -17.156343     15.619445
  N      10.562788    -16.071988     16.306958
  C      10.922632    -14.932746     15.679228
  N      10.805436    -14.825244     14.358419
  N      11.364879    -13.877141     16.379729
  H       7.736528    -17.001581     16.066622
  H       8.089753    -17.451140     14.403072
  H       8.319267    -15.771948     14.914549
  H       9.889867    -18.019798     16.287447
  H      10.445868    -17.438994     14.738101
  H      10.548177    -16.059074     17.317188
  H      11.187172    -13.974312     13.874570
  H      10.632322    -15.643551     13.794440
  H      11.903288    -13.141669     15.871428
  H      11.566390    -14.001453     17.362277
  C      13.998001     -9.220000      7.724999
  O      15.356479     -9.456185      8.098467
  C      13.882326     -7.935366      6.912397
  H      13.329681     -9.174595      8.584877
  H      13.668289    -10.077811      7.125565
  H      15.505280     -9.218462      9.048662
  H      14.195653     -7.074414      7.516633
  H      14.526352     -7.984844      6.027127
  H      12.847539     -7.769815      6.582319
  C      14.518001     -6.670000     12.632999
  S      13.591307     -8.173435     13.114877
  H      14.324364     -6.427596     11.588086
  H      15.589999     -6.829516     12.765827
  H      14.184736     -5.847861     13.268649
  H      14.201053     -8.954284     12.199962
  C      20.972000     -6.019000     10.963999
  C      20.069536     -7.037253     11.683168
  C      18.774647     -7.469585     10.952619
  O      17.949887     -8.130651     11.690369
  O      18.628102     -7.212135      9.741263
  H      20.586780     -5.000259     11.007275
  H      21.074779     -6.292251      9.909063
  H      21.971540     -6.007071     11.415758
  H      20.630386     -7.969031     11.832929
  H      19.796020     -6.684058     12.685368
  C      19.312999    -20.521999      7.175001
  C      18.237275    -19.525210      7.552477
  C      16.897365    -19.744242      7.202184
  C      18.533282    -18.354794      8.265468
  C      15.892993    -18.845923      7.555919
  C      17.541022    -17.439865      8.626256
  C      16.204730    -17.688294      8.281568
  O      15.182048    -16.858880      8.622593
  H      19.761228    -20.307815      6.204785
  H      18.905397    -21.537739      7.123905
  H      20.125258    -20.522554      7.910389
  H      16.631081    -20.644274      6.651837
  H      19.562140    -18.152188      8.554161
  H      14.855873    -19.035954      7.294335
  H      17.795361    -16.535251      9.172382
  H      15.486011    -16.150645      9.243734
  C      19.522001    -11.465000      7.842998
  C      19.198558    -10.571915      9.039444
  N      19.259344    -11.305697     10.290049
  C      20.177751    -11.055176     11.262281
  O      21.100396    -10.235440     11.154758
  N      20.027087    -11.849082     12.396757
  H      19.317472    -10.958064      6.899981
  H      18.915560    -12.375434      7.862758
  H      20.575808    -11.763965      7.859990
  H      19.893470     -9.735918      9.117531
  H      18.199506    -10.133203      8.927284
  H      18.600341    -12.073877     10.409962
  H      20.505706    -11.455586     13.197357
  H      19.073434    -12.145803     12.596671
114
Coordinates from ORCA-job 02_dft_opt_cit_react E -2995.451705375512
  C      16.306855    -11.094804     12.393217
  C      15.134050    -11.281282     13.304646
  C      13.948987    -11.681005     12.805457
  C      13.740329    -11.750222     11.358289
  C      14.661258    -11.318176     10.487974
  C      15.947046    -10.691145     10.948314
  C      12.849354    -12.196777     13.698745
  O      12.960143    -12.088417     14.946511
  O      11.890266    -12.774929     13.083208
  O      15.799040     -9.270047     10.813391
  O      17.077360    -12.364292     12.405460
  C      16.408681    -13.532167     12.087838
  C      16.388838    -13.923760     10.628893
  O      17.271803    -13.440292      9.874854
  O      15.471022    -14.730864     10.252207
  C      15.872327    -14.302176     13.037947
  H      17.032530    -10.376108     12.776781
  H      15.293714    -11.251534     14.376835
  H      12.804058    -12.172803     11.015852
  H      14.479925    -11.369475      9.423101
  H      16.768639    -11.031202     10.317064
  H      16.685386     -8.797639     11.075039
  H      15.356320    -15.217237     12.776643
  H      15.920236    -14.014056     14.082259
  O      12.898202    -15.022654     11.538520
  H      13.774472    -14.824875     11.150584
  H      12.621000    -14.195188     11.977071
  C      12.785000    -13.909001      5.224001
  C      13.422486    -12.522914      5.236290
  N      14.784326    -12.428240      5.793921
  C      15.218946    -12.858283      7.002713
  N      14.780101    -13.992078      7.552897
  N      16.159297    -12.141092      7.626076
  H      13.453745    -14.682279      4.845952
  H      11.904909    -13.878834      4.573477
  H      12.439532    -14.204508      6.218292
  H      13.519880    -12.160138      4.210394
  H      12.764755    -11.821540      5.765696
  H      15.296702    -11.615081      5.469816
  H      15.075010    -14.237644      8.508099
  H      14.374666    -14.727058      6.992745
  H      16.608063    -12.575331      8.443431
  H      16.068494    -11.116997      7.632179
  C       8.412999    -16.813004     15.233001
  C       9.860153    -17.157949     15.618475
  N      10.563861    -16.074854     16.306539
  C      10.926217    -14.936095     15.679280
  N      10.811574    -14.828393     14.358384
  N      11.368978    -13.881138     16.380725
  H       7.736528    -17.001581     16.066622
  H       8.088695    -17.450297     14.402834
  H       8.320218    -15.771657     14.915199
  H       9.889371    -18.022214     16.285496
  H      10.444997    -17.440340     14.736555
  H      10.548242    -16.061990     17.316730
  H      11.191616    -13.975831     13.875645
  H      10.635407    -15.645661     13.794030
  H      11.908601    -13.145930     15.873246
  H      11.569026    -14.006411     17.363533
  C      13.998001     -9.220000      7.724999
  O      15.359459     -9.440399      8.101180
  C      13.870814     -7.941908      6.902169
  H      13.329681     -9.174595      8.584877
  H      13.680096    -10.086543      7.130759
  H      15.503618     -9.207240      9.053672
  H      14.185001     -7.077513      7.496337
  H      14.508215     -7.991711      6.012660
  H      12.834930     -7.783923      6.580242
  C      14.518001     -6.670000     12.632999
  S      13.585829     -8.171142     13.114938
  H      14.324364     -6.427596     11.588086
  H      15.590509     -6.833909     12.764665
  H      14.188193     -5.845333     13.269145
  H      14.195016     -8.953342     12.200002
  C      20.972000     -6.019000     10.963999
  C      20.069769     -7.037130     11.683581
  C      18.774047     -7.468910     10.953963
  O      17.948836     -8.128602     11.692228
  O      18.627347     -7.212207      9.742731
  H      20.586780     -5.000259     11.007275
  H      21.074501     -6.292270      9.909033
  H      21.971756     -6.006890     11.415319
  H      20.630691     -7.968959     11.832285
  H      19.797316     -6.684290     12.686204
  C      19.312999    -20.521999      7.175001
  C      18.236284    -19.526023      7.551986
  C      16.894663    -19.749023      7.205191
  C      18.531338    -18.354759      8.263450
  C      15.888939    -18.852360      7.559924
  C      17.537803    -17.441365      8.625053
  C      16.200958    -17.692383      8.282900
  O      15.177332    -16.864369      8.624592
  H      19.761228    -20.307815      6.204785
  H      18.906280    -21.538140      7.124596
  H      20.125263    -20.521328      7.910409
  H      16.629475    -20.649063      6.655772
  H      19.560290    -18.150541      8.550553
  H      14.851931    -19.044212      7.300176
  H      17.791335    -16.536560      9.170316
  H      15.480983    -16.154520      9.244941
  C      19.522001    -11.465000      7.842998
  C      19.196277    -10.572443      9.039421
  N      19.258845    -11.305615     10.290386
  C      20.177682    -11.054109     11.261781
  O      21.100028    -10.234349     11.153308
  N      20.027721    -11.847308     12.396795
  H      19.317472    -10.958064      6.899981
  H      18.916416    -12.376287      7.860803
  H      20.576560    -11.762473      7.860647
  H      19.889299     -9.734170      9.117383
  H      18.195895    -10.135928      8.927553
  H      18.600711    -12.074110     10.411477
  H      20.505649    -11.453115     13.197401
  H      19.074471    -12.145233     12.596472
114
Coordinates from ORCA-job 02_dft_opt_cit_react E -2995.451736086074
  C      16.309043    -11.096788     12.390028
  C      15.137726    -11.284134     13.303292
  C      13.951302    -11.681768     12.805596
  C      13.739869    -11.747789     11.358614
  C      14.659631    -11.314343     10.487780
  C      15.946439    -10.688556     10.947182
  C      12.853423    -12.199759     13.699873
  O      12.967138    -12.094663     14.947634
  O      11.893115    -12.776490     13.084945
  O      15.798213     -9.267115     10.817245
  O      17.077823    -12.366961     12.397380
  C      16.407640    -13.533255     12.077153
  C      16.387429    -13.921014     10.617188
  O      17.269628    -13.435812      9.863721
  O      15.469739    -14.727231     10.238490
  C      15.871021    -14.305111     13.025615
  H      17.036172    -10.379789     12.774066
  H      15.299841    -11.257203     14.375240
  H      12.803212    -12.169962     11.016485
  H      14.477245    -11.365155      9.423141
  H      16.765798    -11.027189     10.312196
  H      16.685535     -8.795716     11.077937
  H      15.353325    -15.218804     12.762657
  H      15.920284    -14.019669     14.070601
  O      12.899181    -15.020417     11.532028
  H      13.773488    -14.821137     11.140122
  H      12.624172    -14.194737     11.975303
  C      12.785000    -13.909001      5.224001
  C      13.416827    -12.519854      5.228586
  N      14.776193    -12.413538      5.790582
  C      15.215824    -12.846609      6.996832
  N      14.789119    -13.988870      7.540040
  N      16.149240    -12.122928      7.624611
  H      13.453745    -14.682279      4.845952
  H      11.902242    -13.884252      4.576426
  H      12.443665    -14.201851      6.220991
  H      13.515927    -12.163878      4.199591
  H      12.752251    -11.818328      5.750894
  H      15.280246    -11.594477      5.470878
  H      15.084992    -14.237201      8.493868
  H      14.391005    -14.723183      6.975391
  H      16.601114    -12.558781      8.439345
  H      16.052396    -11.098732      7.637505
  C       8.412999    -16.813004     15.233001
  C       9.859808    -17.161518     15.616637
  N      10.566554    -16.080770     16.305126
  C      10.931683    -14.942453     15.678440
  N      10.819161    -14.834020     14.357475
  N      11.375621    -13.888697     16.380957
  H       7.736528    -17.001581     16.066622
  H       8.086605    -17.448439     14.402178
  H       8.322216    -15.770987     14.916713
  H       9.887863    -18.026816     16.282429
  H      10.443063    -17.444249     14.733768
  H      10.549559    -16.067837     17.315248
  H      11.197980    -13.980006     13.875943
  H      10.640607    -15.650192     13.792486
  H      11.916450    -13.153662     15.874626
  H      11.573399    -14.014831     17.364226
  C      13.998001     -9.220000      7.724999
  O      15.362198     -9.423621      8.103846
  C      13.858095     -7.948942      6.893055
  H      13.329681     -9.174595      8.584877
  H      13.691322    -10.093851      7.135110
  H      15.502123     -9.195277      9.058571
  H      14.161985     -7.076047      7.481558
  H      14.498097     -7.998817      6.005263
  H      12.820112     -7.804804      6.567503
  C      14.518001     -6.670000     12.632999
  S      13.583415     -8.169670     13.114585
  H      14.324364     -6.427596     11.588086
  H      15.590043     -6.835391     12.764705
  H      14.189452     -5.845103     13.268929
  H      14.192713     -8.953085     12.200394
  C      20.972000     -6.019000     10.963999
  C      20.070196     -7.037149     11.683979
  C      18.774077     -7.468990     10.954983
  O      17.948234     -8.126760     11.694273
  O      18.627963     -7.214334      9.743178
  H      20.586780     -5.000259     11.007275
  H      21.074206     -6.292220      9.908973
  H      21.971994     -6.006697     11.414806
  H      20.631419     -7.968905     11.831813
  H      19.798459     -6.684552     12.686875
  C      19.312999    -20.521999      7.175001
  C      18.234987    -19.526942      7.551012
  C      16.895008    -19.751102      7.204358
  C      18.529631    -18.352945      8.259290
  C      15.889329    -18.854212      7.557483
  C      17.535776    -17.439525      8.619479
  C      16.200149    -17.692326      8.278202
  O      15.175671    -16.865567      8.619632
  H      19.761228    -20.307815      6.204785
  H      18.907547    -21.538744      7.125606
  H      20.125228    -20.519497      7.910520
  H      16.629783    -20.654371      6.657951
  H      19.559857    -18.145153      8.543684
  H      14.852478    -19.048075      7.299170
  H      17.790559    -16.530290      9.160879
  H      15.477407    -16.155374      9.239849
  C      19.522001    -11.465000      7.842998
  C      19.195194    -10.572258      9.038963
  N      19.258259    -11.304909     10.290110
  C      20.177272    -11.053609     11.261326
  O      21.099715    -10.233927     11.153046
  N      20.027488    -11.847326     12.396054
  H      19.317472    -10.958064      6.899981
  H      18.916906    -12.376765      7.859412
  H      20.577094    -11.761582      7.860777
  H      19.887232     -9.732715      9.116961
  H      18.194162    -10.136854      8.927088
  H      18.600885    -12.073864     10.410977
  H      20.504662    -11.453379     13.197178
  H      19.074578    -12.146649     12.594889
114
Coordinates from ORCA-job 02_dft_opt_cit_react E -2995.451766634769
  C      16.312056    -11.096648     12.389510
  C      15.140940    -11.284593     13.303118
  C      13.954301    -11.682191     12.805757
  C      13.742536    -11.747947     11.358812
  C      14.662168    -11.313676     10.488133
  C      15.948588    -10.686974     10.947411
  C      12.857062    -12.200756     13.700517
  O      12.970905    -12.095525     14.948245
  O      11.896835    -12.778136     13.085952
  O      15.798796     -9.265836     10.819307
  O      17.080668    -12.366693     12.395277
  C      16.410289    -13.532644     12.074154
  C      16.390661    -13.919630     10.614047
  O      17.272873    -13.433976      9.860839
  O      15.473237    -14.726036     10.234820
  C      15.873235    -14.304629     13.022269
  H      17.039166    -10.379845     12.773975
  H      15.303480    -11.258112     14.374994
  H      12.806470    -12.171034     11.016011
  H      14.480169    -11.364686      9.423486
  H      16.767488    -11.024232     10.311167
  H      16.685633     -8.793965     11.079707
  H      15.354188    -15.217528     12.759410
  H      15.923136    -14.019506     14.067334
  O      12.903824    -15.020728     11.531463
  H      13.776991    -14.819013     11.138381
  H      12.628090    -14.196817     11.977638
  C      12.785000    -13.909001      5.224001
  C      13.412647    -12.518230      5.229874
  N      14.770226    -12.406979      5.793921
  C      15.212160    -12.842909      6.997802
  N      14.784704    -13.983917      7.540681
  N      16.147800    -12.122264      7.624584
  H      13.453745    -14.682279      4.845952
  H      11.902479    -13.885460      4.576288
  H      12.442799    -14.202747      6.220306
  H      13.511731    -12.161343      4.201267
  H      12.743203    -11.820345      5.751387
  H      15.273683    -11.590231      5.472660
  H      15.081767    -14.234353      8.493408
  H      14.386691    -14.717691      6.974325
  H      16.600397    -12.559187      8.438635
  H      16.053975    -11.097087      7.637858
  C       8.412999    -16.813004     15.233001
  C       9.859886    -17.161927     15.616382
  N      10.567058    -16.081705     16.305370
  C      10.934088    -14.943881     15.678887
  N      10.822501    -14.834962     14.357998
  N      11.379825    -13.890933     16.381729
  H       7.736528    -17.001581     16.066622
  H       8.086359    -17.448169     14.401970
  H       8.322405    -15.770788     14.916998
  H       9.887912    -18.027679     16.281616
  H      10.442917    -17.444244     14.733203
  H      10.548665    -16.068456     17.315411
  H      11.201526    -13.980747     13.876734
  H      10.639399    -15.649822     13.792743
  H      11.920730    -13.156024     15.875607
  H      11.578712    -14.018153     17.364448
  C      13.998001     -9.220000      7.724999
  O      15.362737     -9.417089      8.104114
  C      13.852371     -7.950649      6.892100
  H      13.329681     -9.174595      8.584877
  H      13.696075    -10.094703      7.134087
  H      15.501632     -9.189760      9.059201
  H      14.149272     -7.074532      7.480242
  H      14.495161     -7.998521      6.005957
  H      12.813747     -7.813647      6.563378
  C      14.518001     -6.670000     12.632999
  S      13.583115     -8.169775     13.113809
  H      14.324364     -6.427596     11.588086
  H      15.589815     -6.835237     12.765084
  H      14.189195     -5.845451     13.268710
  H      14.194638     -8.953535     12.201175
  C      20.972000     -6.019000     10.963999
  C      20.070488     -7.036608     11.685063
  C      18.774367     -7.468768     10.956702
  O      17.947711     -8.124397     11.697061
  O      18.628627     -7.216510      9.744291
  H      20.586780     -5.000259     11.007275
  H      21.073315     -6.292706      9.909030
  H      21.972314     -6.006613     11.414058
  H      20.631707     -7.968345     11.833118
  H      19.799173     -6.683319     12.687805
  C      19.312999    -20.521999      7.175001
  C      18.235807    -19.526086      7.550493
  C      16.895653    -19.749180      7.203277
  C      18.531214    -18.352638      8.259170
  C      15.890172    -18.852095      7.556694
  C      17.537924    -17.438573      8.619285
  C      16.201549    -17.690881      8.278042
  O      15.177398    -16.863969      8.619370
  H      19.761228    -20.307815      6.204785
  H      18.907093    -21.538506      7.125926
  H      20.125292    -20.519521      7.910413
  H      16.629965    -20.652224      6.656804
  H      19.559542    -18.147867      8.545594
  H      14.852311    -19.045577      7.298842
  H      17.791718    -16.532166      9.162768
  H      15.479107    -16.153705      9.239947
  C      19.522001    -11.465000      7.842998
  C      19.196527    -10.571430      9.038880
  N      19.260469    -11.303293     10.290409
  C      20.178301    -11.049902     11.262117
  O      21.100024    -10.229312     11.153585
  N      20.028655    -11.842519     12.397540
  H      19.317472    -10.958064      6.899981
  H      18.916985    -12.376792      7.860045
  H      20.577232    -11.761855      7.859658
  H      19.888703     -9.731767      9.115987
  H      18.195366    -10.135958      8.927559
  H      18.603515    -12.072621     10.411585
  H      20.504768    -11.447413     13.198704
  H      19.076159    -12.143514     12.595825
114
Coordinates from ORCA-job 02_dft_opt_cit_react E -2995.451787243561
  C      16.315367    -11.096046     12.389264
  C      15.144065    -11.285217     13.302426
  C      13.957960    -11.683950     12.804557
  C      13.746787    -11.749533     11.357557
  C      14.666369    -11.313737     10.487537
  C      15.951994    -10.685728     10.947284
  C      12.861090    -12.203360     13.699158
  O      12.973673    -12.096724     14.946890
  O      11.902080    -12.782719     13.084419
  O      15.800463     -9.265225     10.819863
  O      17.084665    -12.365922     12.394488
  C      16.414844    -13.531880     12.072470
  C      16.395186    -13.917620     10.612191
  O      17.276873    -13.430819      9.858967
  O      15.477963    -14.724163     10.232559
  C      15.878066    -14.304601     13.020194
  H      17.042059    -10.379198     12.774466
  H      15.306042    -11.258715     14.374375
  H      12.811909    -12.173955     11.013286
  H      14.484863    -11.363883      9.422761
  H      16.771456    -11.022158     10.311260
  H      16.686623     -8.792158     11.080516
  H      15.358026    -15.216773     12.756965
  H      15.928634    -14.019909     14.065352
  O      12.910217    -15.024439     11.530467
  H      13.782468    -14.819918     11.136932
  H      12.633062    -14.202257     11.979150
  C      12.785000    -13.909001      5.224001
  C      13.408822    -12.516638      5.234148
  N      14.765696    -12.401467      5.797681
  C      15.210053    -12.839456      6.999256
  N      14.779673    -13.978718      7.542896
  N      16.150262    -12.123550      7.624008
  H      13.453745    -14.682279      4.845952
  H      11.903592    -13.885210      4.575016
  H      12.440279    -14.204863      6.218515
  H      13.505324    -12.155682      4.207351
  H      12.735897    -11.824585      5.758361
  H      15.268923    -11.584917      5.474329
  H      15.077198    -14.230829      8.495006
  H      14.378618    -14.710862      6.975895
  H      16.602449    -12.561520      8.437802
  H      16.062468    -11.098407      7.635626
  C       8.412999    -16.813004     15.233001
  C       9.859797    -17.161962     15.616797
  N      10.566980    -16.081756     16.305894
  C      10.935216    -14.944560     15.678972
  N      10.824208    -14.835985     14.358089
  N      11.382443    -13.891910     16.381360
  H       7.736528    -17.001581     16.066622
  H       8.086593    -17.448183     14.401891
  H       8.322396    -15.770764     14.917043
  H       9.887572    -18.027653     16.282091
  H      10.443109    -17.444309     14.733828
  H      10.546580    -16.067460     17.315896
  H      11.204359    -13.982614     13.876226
  H      10.637265    -15.650058     13.793126
  H      11.923340    -13.157409     15.874806
  H      11.582412    -14.019314     17.363709
  C      13.998001     -9.220000      7.724999
  O      15.362731     -9.413206      8.102492
  C      13.846784     -7.950603      6.892240
  H      13.329681     -9.174595      8.584877
  H      13.696711    -10.093553      7.131594
  H      15.501849     -9.185805      9.057121
  H      14.137792     -7.071927      7.480323
  H      14.490628     -7.995597      6.006530
  H      12.807807     -7.820037      6.561839
  C      14.518001     -6.670000     12.632999
  S      13.584926     -8.171224     13.112733
  H      14.324364     -6.427596     11.588086
  H      15.590089     -6.833740     12.765394
  H      14.187874     -5.845794     13.268801
  H      14.199198     -8.953650     12.200750
  C      20.972000     -6.019000     10.963999
  C      20.070642     -7.036036     11.685921
  C      18.774380     -7.467917     10.958271
  O      17.947330     -8.122296     11.699291
  O      18.628386     -7.216917      9.745722
  H      20.586780     -5.000259     11.007275
  H      21.072484     -6.293138      9.909077
  H      21.972570     -6.006667     11.413460
  H      20.631387     -7.968089     11.833936
  H      19.800083     -6.682288     12.688680
  C      19.312999    -20.521999      7.175001
  C      18.236261    -19.525774      7.550643
  C      16.896487    -19.745349      7.199461
  C      18.532582    -18.354239      8.262042
  C      15.892382    -18.846469      7.551728
  C      17.540124    -17.439030      8.621683
  C      16.204037    -17.687903      8.276743
  O      15.181289    -16.859281      8.616701
  H      19.761228    -20.307815      6.204785
  H      18.907120    -21.538499      7.126040
  H      20.125416    -20.519515      7.910241
  H      16.632004    -20.644477      6.648953
  H      19.562802    -18.149827      8.549046
  H      14.857120    -19.034010      7.288472
  H      17.795325    -16.533244      9.166596
  H      15.482399    -16.150128      9.238930
  C      19.522001    -11.465000      7.842998
  C      19.201084    -10.569844      9.038924
  N      19.264619    -11.301077     10.290791
  C      20.180886    -11.046425     11.263668
  O      21.102588    -10.225541     11.155596
  N      20.030178    -11.837843     12.399585
  H      19.317472    -10.958064      6.899981
  H      18.915420    -12.375616      7.862289
  H      20.576401    -11.764364      7.857603
  H      19.895594     -9.732447      9.114685
  H      18.201221    -10.131690      8.928633
  H      18.607288    -12.070220     10.411894
  H      20.505797    -11.442576     13.200974
  H      19.077949    -12.140358     12.596952
114
Coordinates from ORCA-job 02_dft_opt_cit_react E -2995.451801505971
  C      16.317343    -11.095267     12.388102
  C      15.145951    -11.285982     13.300760
  C      13.960414    -11.685736     12.802176
  C      13.749621    -11.750452     11.355113
  C      14.669001    -11.313124     10.485734
  C      15.954279    -10.684501     10.945878
  C      12.863994    -12.206276     13.696344
  O      12.974887    -12.097979     14.944092
  O      11.906614    -12.788163     13.081143
  O      15.802221     -9.264583     10.818451
  O      17.087763    -12.364996     12.393103
  C      16.418900    -13.530965     12.069492
  C      16.398814    -13.914004     10.608777
  O      17.279031    -13.424653      9.855386
  O      15.482379    -14.720743     10.228092
  C      15.882504    -14.305365     13.016148
  H      17.043547    -10.378368     12.774098
  H      15.307244    -11.259757     14.372849
  H      12.815542    -12.175419     11.009519
  H      14.487535    -11.362024      9.420859
  H      16.774606    -11.021083     10.310933
  H      16.687739     -8.790364     11.080107
  H      15.361780    -15.216750     12.751597
  H      15.933442    -14.021849     14.061622
  O      12.915933    -15.027951     11.526572
  H      13.787146    -14.820412     11.132238
  H      12.637524    -14.207697     11.978357
  C      12.785000    -13.909001      5.224001
  C      13.405477    -12.514672      5.237472
  N      14.762518    -12.395002      5.798827
  C      15.210676    -12.833554      6.998346
  N      14.781512    -13.974294      7.541594
  N      16.153362    -12.118893      7.621812
  H      13.453745    -14.682279      4.845952
  H      11.904183    -13.884993      4.574015
  H      12.438609    -14.206487      6.217441
  H      13.498046    -12.149863      4.212074
  H      12.730225    -11.828194      5.765367
  H      15.263732    -11.576434      5.473860
  H      15.078890    -14.227429      8.493329
  H      14.377927    -14.704469      6.974920
  H      16.605331    -12.558138      8.435021
  H      16.067925    -11.093966      7.634448
  C       8.412999    -16.813004     15.233001
  C       9.859614    -17.162287     15.617248
  N      10.567140    -16.081970     16.305968
  C      10.935590    -14.945318     15.678165
  N      10.824677    -14.837581     14.357199
  N      11.383564    -13.892462     16.379476
  H       7.736528    -17.001581     16.066622
  H       8.086892    -17.447933     14.401659
  H       8.322605    -15.770707     14.917307
  H       9.886892    -18.027543     16.283091
  H      10.443128    -17.445093     14.734631
  H      10.544958    -16.066266     17.315977
  H      11.206240    -13.985387     13.874308
  H      10.636541    -15.651646     13.792587
  H      11.924494    -13.158309     15.872378
  H      11.583151    -14.018492     17.362159
  C      13.998001     -9.220000      7.724999
  O      15.363119     -9.408384      8.099760
  C      13.840196     -7.950715      6.891818
  H      13.329681     -9.174595      8.584877
  H      13.695131    -10.092387      7.129963
  H      15.502081     -9.181568      9.054325
  H      14.126112     -7.070221      7.478833
  H      14.483067     -7.992511      6.005208
  H      12.801123     -7.826851      6.562077
  C      14.518001     -6.670000     12.632999
  S      13.586904     -8.172701     13.112101
  H      14.324364     -6.427596     11.588086
  H      15.590483     -6.832158     12.765552
  H      14.186472     -5.846109     13.268990
  H      14.202583     -8.953752     12.200013
  C      20.972000     -6.019000     10.963999
  C      20.070472     -7.035617     11.686198
  C      18.774101     -7.466745     10.958925
  O      17.946617     -8.120277     11.700419
  O      18.627911     -7.216574      9.746218
  H      20.586780     -5.000259     11.007275
  H      21.072020     -6.293499      9.909136
  H      21.972601     -6.006937     11.413367
  H      20.630495     -7.968132     11.833827
  H      19.800572     -6.681858     12.689114
  C      19.312999    -20.521999      7.175001
  C      18.237155    -19.524543      7.549718
  C      16.898438    -19.739411      7.191522
  C      18.532660    -18.356886      8.266804
  C      15.895499    -18.838465      7.541528
  C      17.541786    -17.439233      8.624048
  C      16.207790    -17.682110      8.271166
  O      15.185580    -16.852341      8.609839
  H      19.761228    -20.307815      6.204785
  H      18.906606    -21.538221      7.125692
  H      20.125150    -20.519962      7.910469
  H      16.632208    -20.638863      6.638935
  H      19.560320    -18.158001      8.560557
  H      14.858235    -19.024400      7.274845
  H      17.796592    -16.536305      9.173400
  H      15.485406    -16.145246      9.234505
  C      19.522001    -11.465000      7.842998
  C      19.206928    -10.567344      9.038724
  N      19.267932    -11.297829     10.291158
  C      20.182709    -11.043516     11.265645
  O      21.104961    -10.222833     11.158914
  N      20.030224    -11.834425     12.401476
  H      19.317472    -10.958064      6.899981
  H      18.912801    -12.373787      7.866015
  H      20.575181    -11.768063      7.855423
  H      19.905520     -9.733643      9.113217
  H      18.209158    -10.124615      8.928733
  H      18.609716    -12.066453     10.410938
  H      20.505731    -11.439987     13.203338
  H      19.078112    -12.138181     12.597589
114
Coordinates from ORCA-job 02_dft_opt_cit_react E -2995.451818486521
  C      16.316320    -11.093666     12.387437
  C      15.144807    -11.284551     13.299894
  C      13.959294    -11.684276     12.801161
  C      13.748563    -11.748963     11.354153
  C      14.668035    -11.311989     10.484719
  C      15.953561    -10.683723     10.944784
  C      12.862460    -12.204297     13.695100
  O      12.972105    -12.094585     14.942755
  O      11.905867    -12.787353     13.079615
  O      15.802112     -9.263773     10.816414
  O      17.087496    -12.363059     12.393197
  C      16.418891    -13.529198     12.069646
  C      16.398843    -13.912219     10.608957
  O      17.278415    -13.422141      9.855267
  O      15.482930    -14.719422     10.228381
  C      15.882331    -14.303550     13.016291
  H      17.042120    -10.376353     12.773365
  H      15.305743    -11.258083     14.372028
  H      12.814325    -12.173593     11.008548
  H      14.486246    -11.360891      9.419884
  H      16.774378    -11.020753     10.310687
  H      16.687314     -8.789578     11.078777
  H      15.361462    -15.214832     12.751558
  H      15.932796    -14.019802     14.061738
  O      12.916672    -15.026154     11.525866
  H      13.787699    -14.817706     11.131566
  H      12.637754    -14.206470     11.978299
  C      12.785000    -13.909001      5.224001
  C      13.405710    -12.514432      5.237370
  N      14.763142    -12.395193      5.797772
  C      15.212195    -12.832647      6.997307
  N      14.785216    -13.974545      7.540315
  N      16.153817    -12.115445      7.621002
  H      13.453745    -14.682279      4.845952
  H      11.903924    -13.884735      4.574027
  H      12.439024    -14.206355      6.217955
  H      13.497970    -12.149209      4.211544
  H      12.731119    -11.827584      5.766413
  H      15.264531    -11.577320      5.472036
  H      15.082074    -14.227157      8.492441
  H      14.381671    -14.704453      6.974961
  H      16.606295    -12.555143      8.433628
  H      16.065510    -11.089755      7.636226
  C       8.412999    -16.813004     15.233001
  C       9.859764    -17.160765     15.617976
  N      10.566212    -16.079382     16.306266
  C      10.933930    -14.942801     15.677819
  N      10.823055    -14.835992     14.356749
  N      11.381054    -13.889243     16.378575
  H       7.736528    -17.001581     16.066622
  H       8.087754    -17.448800     14.401999
  H       8.321794    -15.771010     14.916567
  H       9.887593    -18.025528     16.284462
  H      10.444006    -17.443599     14.735863
  H      10.543542    -16.062942     17.316327
  H      11.204984    -13.984157     13.873348
  H      10.635884    -15.650788     13.792604
  H      11.921750    -13.154989     15.871329
  H      11.579933    -14.014164     17.361684
  C      13.998001     -9.220000      7.724999
  O      15.363927     -9.405598      8.099049
  C      13.838137     -7.951687      6.891129
  H      13.329681     -9.174595      8.584877
  H      13.695014    -10.093167      7.131253
  H      15.501786     -9.179711      9.054288
  H      14.121161     -7.070825      7.477958
  H      14.481376     -7.992522      6.004795
  H      12.799157     -7.830501      6.560904
  C      14.518001     -6.670000     12.632999
  S      13.587427     -8.172688     13.112689
  H      14.324364     -6.427596     11.588086
  H      15.590280     -6.831800     12.765672
  H      14.186137     -5.846654     13.268837
  H      14.201568     -8.953976     12.200143
  C      20.972000     -6.019000     10.963999
  C      20.070256     -7.035508     11.685998
  C      18.773745     -7.466179     10.958618
  O      17.945847     -8.119144     11.700119
  O      18.627872     -7.216194      9.745820
  H      20.586780     -5.000259     11.007275
  H      21.072131     -6.293569      9.909171
  H      21.972492     -6.007032     11.413602
  H      20.629987     -7.968179     11.833565
  H      19.800412     -6.681832     12.688983
  C      19.312999    -20.521999      7.175001
  C      18.237164    -19.524435      7.549772
  C      16.898664    -19.737972      7.189465
  C      18.532630    -18.357302      8.268124
  C      15.894663    -18.837987      7.539909
  C      17.540765    -17.440443      8.625852
  C      16.205519    -17.683881      8.272311
  O      15.183136    -16.853725      8.610498
  H      19.761228    -20.307815      6.204785
  H      18.906420    -21.538163      7.125066
  H      20.124995    -20.520559      7.910648
  H      16.633567    -20.635223      6.634417
  H      19.560477    -18.158811      8.563107
  H      14.858319    -19.022369      7.270733
  H      17.795236    -16.538305      9.176437
  H      15.484032    -16.146297      9.234960
  C      19.522001    -11.465000      7.842998
  C      19.207389    -10.566254      9.038420
  N      19.266966    -11.296210     10.291281
  C      20.181440    -11.041901     11.266064
  O      21.103491    -10.221041     11.159604
  N      20.028997    -11.832767     12.401904
  H      19.317472    -10.958064      6.899981
  H      18.912150    -12.373602      7.867450
  H      20.575269    -11.768659      7.855590
  H      19.907099     -9.732999      9.112788
  H      18.209826    -10.122381      8.927859
  H      18.608572    -12.064881     10.410222
  H      20.504630    -11.438270     13.203616
  H      19.077007    -12.136686     12.598218
114
Coordinates from ORCA-job 02_dft_opt_cit_react E -2995.451829770644
  C      16.315790    -11.092022     12.387529
  C      15.144107    -11.283567     13.299459
  C      13.959067    -11.683894     12.800212
  C      13.748790    -11.748519     11.353141
  C      14.668157    -11.311125     10.483885
  C      15.953480    -10.682851     10.944413
  C      12.861815    -12.204116     13.693532
  O      12.970450    -12.093624     14.941142
  O      11.906070    -12.788010     13.077467
  O      15.802185     -9.262685     10.815467
  O      17.088211    -12.360896     12.394085
  C      16.420210    -13.527508     12.071054
  C      16.399801    -13.910654     10.610435
  O      17.279130    -13.420523      9.856494
  O      15.483988    -14.717793     10.229822
  C      15.884095    -14.302086     13.017706
  H      17.040947    -10.374056     12.773400
  H      15.304380    -11.256857     14.371675
  H      12.814509    -12.173281     11.007758
  H      14.486263    -11.359708      9.419065
  H      16.775146    -11.019358     10.311148
  H      16.687532     -8.788641     11.078479
  H      15.364040    -15.213791     12.752770
  H      15.933913    -14.018220     14.063115
  O      12.918006    -15.025636     11.524631
  H      13.788922    -14.816143     11.130708
  H      12.638432    -14.206611     11.977817
  C      12.785000    -13.909001      5.224001
  C      13.406116    -12.514460      5.238670
  N      14.764109    -12.396828      5.797922
  C      15.212868    -12.832590      6.998123
  N      14.785459    -13.973655      7.542014
  N      16.155013    -12.114727      7.620897
  H      13.453745    -14.682279      4.845952
  H      11.904113    -13.883884      4.573674
  H      12.438942    -14.206823      6.217989
  H      13.498048    -12.147625      4.213027
  H      12.732811    -11.827623      5.769850
  H      15.266843    -11.580063      5.471160
  H      15.082823    -14.225175      8.494530
  H      14.381230    -14.705084      6.977753
  H      16.607741    -12.554275      8.433455
  H      16.067399    -11.089488      7.635522
  C       8.412999    -16.813004     15.233001
  C       9.859761    -17.159926     15.618429
  N      10.565523    -16.077983     16.306437
  C      10.932952    -14.941487     15.677552
  N      10.821395    -14.835007     14.356558
  N      11.380345    -13.887871     16.378011
  H       7.736528    -17.001581     16.066622
  H       8.088161    -17.449248     14.402229
  H       8.321328    -15.771189     14.916216
  H       9.887799    -18.024372     16.285328
  H      10.444505    -17.442761     14.736672
  H      10.542359    -16.060874     17.316479
  H      11.203998    -13.983857     13.872497
  H      10.632255    -15.649462     13.792828
  H      11.920613    -13.153621     15.870315
  H      11.580271    -14.012818     17.360852
  C      13.998001     -9.220000      7.724999
  O      15.364841     -9.402852      8.099088
  C      13.836354     -7.953455      6.889340
  H      13.329681     -9.174595      8.584877
  H      13.696669    -10.095320      7.133871
  H      15.501539     -9.177703      9.054860
  H      14.115193     -7.071385      7.476199
  H      14.481314     -7.993622      6.004304
  H      12.797384     -7.835605      6.556953
  C      14.518001     -6.670000     12.632999
  S      13.588352     -8.173041     13.113306
  H      14.324364     -6.427596     11.588086
  H      15.590256     -6.831246     12.765737
  H      14.185620     -5.847050     13.268808
  H      14.201568     -8.953984     12.199999
  C      20.972000     -6.019000     10.963999
  C      20.070072     -7.035356     11.685982
  C      18.773273     -7.465708     10.958556
  O      17.945418     -8.118735     11.699978
  O      18.627373     -7.215299      9.745920
  H      20.586780     -5.000259     11.007275
  H      21.072206     -6.293559      9.909171
  H      21.972469     -6.007036     11.413681
  H      20.629442     -7.968228     11.833589
  H      19.800159     -6.681594     12.688937
  C      19.312999    -20.521999      7.175001
  C      18.237299    -19.524297      7.550085
  C      16.899026    -19.736835      7.187914
  C      18.532701    -18.357470      8.269526
  C      15.895450    -18.836094      7.537268
  C      17.540749    -17.440464      8.626728
  C      16.206273    -17.682325      8.270725
  O      15.183711    -16.851872      8.608632
  H      19.761228    -20.307815      6.204785
  H      18.905812    -21.537961      7.124250
  H      20.124833    -20.521557      7.910836
  H      16.634061    -20.633271      6.631496
  H      19.560589    -18.159525      8.565988
  H      14.860376    -19.019017      7.265527
  H      17.794845    -16.538894      9.178334
  H      15.484927    -16.145406      9.233772
  C      19.522001    -11.465000      7.842998
  C      19.208059    -10.565495      9.038193
  N      19.267377    -11.295248     10.291237
  C      20.181685    -11.040066     11.265954
  O      21.103341    -10.218948     11.159059
  N      20.029595    -11.830344     12.402180
  H      19.317472    -10.958064      6.899981
  H      18.911370    -12.373094      7.868337
  H      20.575226    -11.769382      7.855916
  H      19.908731     -9.732684      9.112074
  H      18.210719    -10.120611      8.927714
  H      18.608826    -12.063859     10.410273
  H      20.505595    -11.435529     13.203481
  H      19.077823    -12.134467     12.599031
114
Coordinates from ORCA-job 02_dft_opt_cit_react E -2995.451847124989
  C      16.316629    -11.088613     12.387718
  C      15.145070    -11.282113     13.298990
  C      13.960839    -11.683708     12.798998
  C      13.751034    -11.747944     11.351812
  C      14.669877    -11.309101     10.482789
  C      15.954619    -10.680491     10.944079
  C      12.863492    -12.205441     13.691381
  O      12.970234    -12.093390     14.938925
  O      11.909922    -12.791823     13.074346
  O      15.802866     -9.259879     10.814843
  O      17.091762    -12.356434     12.395156
  C      16.425234    -13.523919     12.072296
  C      16.404146    -13.906351     10.611432
  O      17.282622    -13.414886      9.857374
  O      15.488762    -14.713655     10.230438
  C      15.890181    -14.299636     13.018510
  H      17.040622    -10.369397     12.773441
  H      15.304584    -11.255544     14.371334
  H      12.816735    -12.173410     11.007139
  H      14.487718    -11.357273      9.418056
  H      16.777811    -11.015453     10.311949
  H      16.688288     -8.786010     11.079638
  H      15.371467    -15.211845     12.752599
  H      15.939082    -14.016243     14.064057
  O      12.924313    -15.026275     11.520922
  H      13.794151    -14.812996     11.126625
  H      12.643044    -14.209876     11.977841
  C      12.785000    -13.909001      5.224001
  C      13.404287    -12.513669      5.242776
  N      14.763382    -12.396460      5.799286
  C      15.213158    -12.830110      6.999883
  N      14.785684    -13.969382      7.546083
  N      16.156816    -12.111804      7.619751
  H      13.453745    -14.682279      4.845952
  H      11.904662    -13.882811      4.573007
  H      12.438426    -14.208705      6.217269
  H      13.493740    -12.141874      4.218779
  H      12.732203    -11.829913      5.779189
  H      15.267459    -11.581772      5.470037
  H      15.085261    -14.219749      8.498318
  H      14.378659    -14.701962      6.984836
  H      16.611158    -12.551337      8.431485
  H      16.070483    -11.086630      7.633364
  C       8.412999    -16.813004     15.233001
  C       9.859666    -17.159153     15.619243
  N      10.564738    -16.076781     16.307119
  C      10.932599    -14.940630     15.677619
  N      10.819630    -14.834188     14.356870
  N      11.382186    -13.887747     16.377673
  H       7.736528    -17.001581     16.066622
  H       8.088552    -17.449710     14.402457
  H       8.320798    -15.771321     14.915949
  H       9.887592    -18.023277     16.286577
  H      10.445275    -17.442040     14.738082
  H      10.539624    -16.058193     17.317085
  H      11.204653    -13.984889     13.871599
  H      10.623694    -15.647327     13.793706
  H      11.921738    -13.153487     15.869274
  H      11.584859    -14.013714     17.359771
  C      13.998001     -9.220000      7.724999
  O      15.366747     -9.394453      8.099921
  C      13.829689     -7.958683      6.882316
  H      13.329681     -9.174595      8.584877
  H      13.702959    -10.101704      7.140156
  H      15.500617     -9.171490      9.056759
  H      14.099582     -7.072115      7.466375
  H      14.476729     -7.997330      5.998999
  H      12.790819     -7.850412      6.546815
  C      14.518001     -6.670000     12.632999
  S      13.589346     -8.173519     13.115082
  H      14.324364     -6.427596     11.588086
  H      15.590829     -6.831075     12.765212
  H      14.185539     -5.846494     13.269074
  H      14.202819     -8.954536     12.201938
  C      20.972000     -6.019000     10.963999
  C      20.070040     -7.034752     11.686812
  C      18.772598     -7.464813     10.959881
  O      17.944436     -8.116839     11.701921
  O      18.626738     -7.214929      9.747141
  H      20.586780     -5.000259     11.007275
  H      21.071759     -6.293830      9.909196
  H      21.972681     -6.006912     11.413251
  H      20.628946     -7.967870     11.834552
  H      19.800319     -6.680358     12.689621
  C      19.312999    -20.521999      7.175001
  C      18.237912    -19.523575      7.550211
  C      16.900851    -19.732013      7.182019
  C      18.532206    -18.359940      8.274404
  C      15.897383    -18.830488      7.529924
  C      17.540950    -17.441585      8.629736
  C      16.207785    -17.679263      8.267348
  O      15.185738    -16.846930      8.603164
  H      19.761228    -20.307815      6.204785
  H      18.904317    -21.537402      7.122852
  H      20.124470    -20.523505      7.911216
  H      16.636570    -20.625397      6.621324
  H      19.559966    -18.164360      8.575186
  H      14.862771    -19.011353      7.253440
  H      17.795358    -16.540700      9.183808
  H      15.487386    -16.143091      9.230505
  C      19.522001    -11.465000      7.842998
  C      19.211479    -10.563046      9.037284
  N      19.270024    -11.291724     10.291101
  C      20.183326    -11.033925     11.266063
  O      21.103959    -10.211890     11.158356
  N      20.031891    -11.822607     12.403373
  H      19.317472    -10.958064      6.899981
  H      18.909552    -12.371513      7.871431
  H      20.574600    -11.771640      7.855884
  H      19.915155     -9.732563      9.109335
  H      18.215553    -10.114700      8.927069
  H      18.611304    -12.060244     10.410230
  H      20.507786    -11.426286     13.203936
  H      19.080684    -12.127935     12.600854
114
Coordinates from ORCA-job 02_dft_opt_cit_react E -2995.451856535102
  C      16.318426    -11.087359     12.387061
  C      15.147272    -11.282325     13.298387
  C      13.963321    -11.684566     12.798173
  C      13.753342    -11.747903     11.350937
  C      14.671572    -11.307542     10.482034
  C      15.956115    -10.678897     10.943597
  C      12.866747    -12.208368     13.690222
  O      12.972828    -12.096007     14.937808
  O      11.914560    -12.796590     13.072817
  O      15.804165     -9.258078     10.815052
  O      17.094562    -12.354837     12.393917
  C      16.428880    -13.522441     12.069743
  C      16.407146    -13.902648     10.608243
  O      17.284660    -13.409116      9.854480
  O      15.492213    -14.710037     10.226414
  C      15.894660    -14.299920     13.014962
  H      17.042122    -10.367877     12.772926
  H      15.307014    -11.256578     14.370748
  H      12.819075    -12.173694     11.006633
  H      14.488677    -11.355099      9.417356
  H      16.779896    -11.012803     10.311730
  H      16.689673     -8.784478     11.080862
  H      15.376446    -15.212041     12.747648
  H      15.943698    -14.018112     14.060932
  O      12.928987    -15.028829     11.516192
  H      13.797603    -14.812760     11.120493
  H      12.647280    -14.214598     11.976867
  C      12.785000    -13.909001      5.224001
  C      13.401823    -12.512342      5.243935
  N      14.761967    -12.392796      5.797853
  C      15.213639    -12.825543      6.998323
  N      14.788496    -13.965633      7.544772
  N      16.156869    -12.105812      7.617052
  H      13.453745    -14.682279      4.845952
  H      11.904177    -13.883730      4.573538
  H      12.439015    -14.209596      6.217271
  H      13.488138    -12.137885      4.220886
  H      12.729497    -11.831616      5.783543
  H      15.264109    -11.577125      5.467945
  H      15.088829    -14.215672      8.496903
  H      14.380344    -14.698162      6.984162
  H      16.612782    -12.545299      8.427830
  H      16.070150    -11.080959      7.631164
  C       8.412999    -16.813004     15.233001
  C       9.859536    -17.159985     15.619220
  N      10.565314    -16.078166     16.307173
  C      10.934008    -14.942275     15.677523
  N      10.819964    -14.835198     14.356939
  N      11.386178    -13.890513     16.377472
  H       7.736528    -17.001581     16.066622
  H       8.088142    -17.449259     14.402247
  H       8.321133    -15.771117     14.916429
  H       9.886864    -18.024233     16.286412
  H      10.445073    -17.443124     14.738085
  H      10.538663    -16.058725     17.317125
  H      11.207108    -13.987226     13.870991
  H      10.618781    -15.647221     13.793914
  H      11.925462    -13.156171     15.868788
  H      11.590786    -14.017810     17.359063
  C      13.998001     -9.220000      7.724999
  O      15.367477     -9.387329      8.100552
  C      13.824312     -7.963381      6.877331
  H      13.329681     -9.174595      8.584877
  H      13.708140    -10.105458      7.143864
  H      15.499535     -9.166549      9.058018
  H      14.086674     -7.072610      7.458789
  H      14.474034     -8.001013      5.995912
  H      12.785659     -7.863335      6.538509
  C      14.518001     -6.670000     12.632999
  S      13.591762     -8.174492     13.115515
  H      14.324364     -6.427596     11.588086
  H      15.590821     -6.829385     12.765451
  H      14.184353     -5.847174     13.268916
  H      14.206650     -8.955226     12.203111
  C      20.972000     -6.019000     10.963999
  C      20.070245     -7.034299     11.687657
  C      18.772484     -7.463970     10.961335
  O      17.944485     -8.115940     11.703634
  O      18.625853     -7.213773      9.748875
  H      20.586780     -5.000259     11.007275
  H      21.071188     -6.294131      9.909227
  H      21.972916     -6.006835     11.412726
  H      20.628972     -7.967565     11.835278
  H      19.800953     -6.679485     12.690427
  C      19.312999    -20.521999      7.175001
  C      18.238464    -19.522809      7.549377
  C      16.901719    -19.729149      7.177188
  C      18.532947    -18.360200      8.276014
  C      15.899535    -18.825552      7.522630
  C      17.542031    -17.440988      8.629865
  C      16.209817    -17.675772      8.262575
  O      15.188255    -16.841898      8.596037
  H      19.761228    -20.307815      6.204785
  H      18.903795    -21.537235      7.123152
  H      20.124425    -20.523477      7.911256
  H      16.636575    -20.622578      6.614952
  H      19.559159    -18.167635      8.581150
  H      14.866383    -19.003645      7.241857
  H      17.795346    -16.542556      9.186941
  H      15.489047    -16.140147      9.225466
  C      19.522001    -11.465000      7.842998
  C      19.215194    -10.560900      9.036394
  N      19.272705    -11.288794     10.290619
  C      20.185138    -11.030098     11.266142
  O      21.105591    -10.207744     11.158520
  N      20.033501    -11.818217     12.403758
  H      19.317472    -10.958064      6.899981
  H      18.907744    -12.369949      7.873789
  H      20.573735    -11.773854      7.855347
  H      19.921608     -9.732935      9.107052
  H      18.220894    -10.109341      8.926429
  H      18.613714    -12.057099     10.409225
  H      20.508846    -11.421333     13.204361
  H      19.082532    -12.124447     12.600914
114
Coordinates from ORCA-job 02_dft_opt_cit_react E -2995.451865292678
  C      16.319900    -11.086518     12.386717
  C      15.148782    -11.282477     13.297883
  C      13.965282    -11.685617     12.797311
  C      13.755701    -11.748655     11.350017
  C      14.673632    -11.306899     10.481418
  C      15.957608    -10.677756     10.943468
  C      12.869208    -12.210772     13.689101
  O      12.974588    -12.097870     14.936708
  O      11.918081    -12.800563     13.071559
  O      15.804902     -9.256957     10.815642
  O      17.096426    -12.353677     12.393122
  C      16.431454    -13.521418     12.067948
  C      16.409492    -13.900362     10.606034
  O      17.286459    -13.405545      9.852554
  O      15.494846    -14.708037     10.223973
  C      15.897879    -14.299935     13.012708
  H      17.043227    -10.366846     12.772913
  H      15.308507    -11.256953     14.370225
  H      12.821748    -12.174823     11.005586
  H      14.490202    -11.353581      9.416706
  H      16.781862    -11.010679     10.311844
  H      16.690112     -8.783281     11.081917
  H      15.380041    -15.212085     12.744855
  H      15.947287    -14.019115     14.058941
  O      12.932288    -15.032123     11.513711
  H      13.800236    -14.814550     11.117440
  H      12.650449    -14.219006     11.976258
  C      12.785000    -13.909001      5.224001
  C      13.400799    -12.511852      5.244329
  N      14.762152    -12.391772      5.795627
  C      15.214443    -12.823279      6.996496
  N      14.789763    -13.962968      7.543880
  N      16.157479    -12.102900      7.614415
  H      13.453745    -14.682279      4.845952
  H      11.903834    -13.884534      4.574124
  H      12.439280    -14.210016      6.217189
  H      13.484663    -12.135800      4.221717
  H      12.728628    -11.832674      5.786250
  H      15.262913    -11.575397      5.465101
  H      15.090046    -14.212496      8.496302
  H      14.380309    -14.695170      6.983593
  H      16.614439    -12.541889      8.424819
  H      16.071426    -11.078324      7.628080
  C       8.412999    -16.813004     15.233001
  C       9.859482    -17.160689     15.619057
  N      10.565836    -16.079318     16.307088
  C      10.935109    -14.943593     15.677477
  N      10.820102    -14.835816     14.357033
  N      11.389289    -13.892670     16.377557
  H       7.736528    -17.001581     16.066622
  H       8.087799    -17.448848     14.402038
  H       8.321406    -15.770946     14.916836
  H       9.886415    -18.025116     16.286026
  H      10.444781    -17.443973     14.737789
  H      10.538271    -16.059467     17.317040
  H      11.208765    -13.988746     13.870516
  H      10.614819    -15.646950     13.794137
  H      11.927946    -13.158107     15.868601
  H      11.596705    -14.021644     17.358301
  C      13.998001     -9.220000      7.724999
  O      15.367640     -9.382803      8.101156
  C      13.820957     -7.966822      6.874087
  H      13.329681     -9.174595      8.584877
  H      13.711284    -10.107544      7.145868
  H      15.498454     -9.163509      9.059062
  H      14.079229     -7.073090      7.453056
  H      14.472671     -8.004401      5.993999
  H      12.782438     -7.871842      6.533081
  C      14.518001     -6.670000     12.632999
  S      13.593166     -8.175223     13.115201
  H      14.324364     -6.427596     11.588086
  H      15.590785     -6.828308     12.765701
  H      14.183572     -5.847641     13.268768
  H      14.209616     -8.955712     12.203590
  C      20.972000     -6.019000     10.963999
  C      20.070381     -7.033779     11.688475
  C      18.772710     -7.463503     10.962472
  O      17.944291     -8.114590     11.705399
  O      18.626156     -7.214404      9.749552
  H      20.586780     -5.000259     11.007275
  H      21.070615     -6.294490      9.909289
  H      21.973108     -6.006794     11.412264
  H      20.628973     -7.967077     11.836498
  H      19.801224     -6.678266     12.691020
  C      19.312999    -20.521999      7.175001
  C      18.238801    -19.522312      7.548854
  C      16.902800    -19.726309      7.174116
  C      18.533408    -18.361167      8.277325
  C      15.900722    -18.822325      7.519400
  C      17.543388    -17.440779      8.630298
  C      16.211478    -17.673572      8.260646
  O      15.190508    -16.838493      8.592606
  H      19.761228    -20.307815      6.204785
  H      18.903688    -21.537164      7.123746
  H      20.124520    -20.523081      7.911119
  H      16.637765    -20.618424      6.610365
  H      19.559461    -18.170087      8.584093
  H      14.866495    -18.999857      7.237872
  H      17.797041    -16.543199      9.188554
  H      15.490839    -16.137518      9.223206
  C      19.522001    -11.465000      7.842998
  C      19.217826    -10.559449      9.035950
  N      19.275121    -11.286922     10.290309
  C      20.186818    -11.027722     11.266332
  O      21.107274    -10.205233     11.158932
  N      20.034823    -11.815557     12.404054
  H      19.317472    -10.958064      6.899981
  H      18.906229    -12.368809      7.874759
  H      20.573177    -11.775413      7.854755
  H      19.925901     -9.732866      9.105643
  H      18.224435    -10.105967      8.926421
  H      18.615923    -12.055048     10.408627
  H      20.509578    -11.418362     13.204885
  H      19.083881    -12.122117     12.600858
