114
Coordinates from ORCA-job 02_dft_opt_cit_react
  C          16.32131324842201    -11.08617559450676     12.38652699133408
  C          15.15002012314696    -11.28319153768332     13.29731273900101
  C          13.96714648646264    -11.68731836517100     12.79601818499471
  C          13.75840149868851    -11.74995642928624     11.34860363532021
  C          14.67625933560262    -11.30648495028783     10.48060698817788
  C          15.95928913884409    -10.67647905361173     10.94368683474726
  C          12.87152348307020    -12.21379698327352     13.68742644595498
  O          12.97621462430198    -12.10018014457362     14.93508170465814
  O          11.92140884692497    -12.80526155540511     13.06990662908668
  O          15.80535304993888     -9.25573559008497     10.81729269281206
  O          17.09775002300069    -12.35308287754006     12.39201002322370
  C          16.43373695626819    -13.52095697525030     12.06526097714936
  C          16.41183785806876    -13.89845248292974     10.60285400062833
  O          17.28836706302044    -13.40224220375416      9.84993419776019
  O          15.49757655557067    -14.70675402496619     10.22068664154662
  C          15.90103691366122    -14.30087665842040     13.00940964057329
  H          17.04426944290003    -10.36656090542302     12.77350901039470
  H          15.30963436910129    -11.25787012207721     14.36964991545364
  H          12.82483748243734    -12.17640305731802     11.00364874684827
  H          14.49232436294794    -11.35193764186523      9.41583499678249
  H          16.78417640206709    -11.00808224608241     10.31235537415760
  H          16.69026264729768     -8.78224306928932     11.08409652794144
  H          15.38392345764724    -15.21321273722550     12.74091909541324
  H          15.95116973787969    -14.02146998614530     14.05601176307482
  O          12.93517398224023    -15.03686951095400     11.51019795537118
  H          13.80263987070452    -14.81819606476943     11.11375486962266
  H          12.65359909166974    -14.22464563556708     11.97434816824346
  C          12.78499962425174    -13.90900092539997      5.22400140026362
  C          13.40035680408589    -12.51179596536650      5.24418177420449
  N          14.76383185405508    -12.39227137777812      5.79113843826741
  C          15.21612098862308    -12.82111432803944      6.99320712076891
  N          14.79144130672601    -13.95958316371567      7.54284177261208
  N          16.15851794982239    -12.09977811246610      7.61026934060193
  H          13.45374461597042    -14.68227868618902      4.84595154489227
  H          11.90345078879006    -13.88560880102745      4.57495491082141
  H          12.43957847997408    -14.21015850465512      6.21706379440213
  H          13.48067843343548    -12.13425860517691      4.22192658694808
  H          12.72937531258269    -11.83366718654639      5.78899773172402
  H          15.26283838030411    -11.57538348081072      5.45940379661027
  H          15.09155024947311    -14.20835840203471      8.49539602896339
  H          14.37994336738922    -14.69047690569676      6.98373939878310
  H          16.61696129460910    -12.53767745779596      8.42048416717177
  H          16.07257623497238    -11.07463139517266      7.62331620009875
  C           8.41299921138542    -16.81300447541678     15.23300073136638
  C           9.85952951379054    -17.16141234238854     15.61858468455531
  N          10.56652153212091    -16.08057483457744     16.30671728007824
  C          10.93625027875318    -14.94495314900296     15.67730218530591
  N          10.81913983441344    -14.83583181359080     14.35717579468226
  N          11.39338354738841    -13.89528882227360     16.37769049667823
  H           7.73652815381303    -17.00158107114218     16.06662238956129
  H           8.08736634202352    -17.44836820467155     14.40180505304873
  H           8.32158085182001    -15.77075915831868     14.91732901823408
  H           9.88620300239273    -18.02620029087895     16.28509031560138
  H          10.44429596326481    -17.44459233811294     14.73690038976712
  H          10.53850873055439    -16.06068524113234     17.31666191923704
  H          11.20980334668361    -13.98983776264955     13.86984026343811
  H          10.60820650123134    -15.64562625615867     13.79449111279699
  H          11.93092119339476    -13.16029559775570     15.86827657532671
  H          11.60591623172336    -14.02727664275381     17.35689833350974
  C          13.99800064607382     -9.21999987164434      7.72499924864796
  O          15.36783890782381     -9.37745055010248      8.10240104409091
  C          13.81674307161582     -7.97133197301137      6.86860626142778
  H          13.32968104629559     -9.17459465971468      8.58487725998968
  H          13.71396720009478    -10.11053679572944      7.14854331602804
  H          15.49673704938953     -9.16020498080982      9.06109295253157
  H          14.07347436813602     -7.07374281718024      7.44212530569837
  H          14.46897448768870     -8.01075818207937      5.98884582478381
  H          12.77818717681158     -7.88114137442272      6.52714232781429
  C          14.51800127961629     -6.67000015922241     12.63299856909288
  S          13.59280612741663     -8.17525066368665     13.11501991945138
  H          14.32436406157708     -6.42759626423834     11.58808640716974
  H          15.59106094221687     -6.82845107001246     12.76550101336668
  H          14.18391874218164     -5.84704716680232     13.26875559015455
  H          14.21134307645997     -8.95643481284378     12.20510123243271
  C          20.97199979823719     -6.01900048098995     10.96399942790567
  C          20.07060957147894     -7.03274063551608     11.69022268827386
  C          18.77264490181945     -7.46231659827270     10.96527970092985
  O          17.94447518813968     -8.11326304341344     11.70860554090082
  O          18.62488934404745     -7.21315099672498      9.75264382484577
  H          20.58678001399178     -5.00025868967187     11.00727532351574
  H          21.06926699762391     -6.29522151069743      9.90938430299093
  H          21.97356981575105     -6.00676539808979     11.41120995344587
  H          20.62895478938113     -7.96604400547465     11.83910565434810
  H          19.80216935284670     -6.67584317421783     12.69244690788725
  C          19.31299927904363    -20.52199859855464      7.17500057494920
  C          18.23875574831356    -19.52204034322274      7.54811886835286
  C          16.90280860194561    -19.72481916006023      7.17223005633322
  C          18.53367611936367    -18.36197202634154      8.27767579388085
  C          15.90128918506827    -18.81986299430689      7.51701051088520
  C          17.54451121433185    -17.44040839272731      8.62978582777776
  C          16.21281979447389    -17.67144778816028      8.25847456406883
  O          15.19284854697191    -16.83468662189756      8.58850259251362
  H          19.76122790766647    -20.30781454401388      6.20478520465036
  H          18.90426005664519    -21.53735949601237      7.12507084629983
  H          20.12474343564090    -20.52165042903345      7.91084624036496
  H          16.63732215503271    -20.61676505324244      6.60812157452177
  H          19.55928050309992    -18.17238870769117      8.58562915314881
  H          14.86688658726239    -18.99600554688295      7.23471687032435
  H          17.79897239816384    -16.54297880247313      9.18836851135617
  H          15.49280084269678    -16.13396707069403      9.21996353043533
  C          19.52200136029153    -11.46499993820689      7.84299812337930
  C          19.22035180346712    -10.55816063126876      9.03568851388839
  N          19.27772779138540    -11.28557425181798     10.28993723013978
  C          20.18849782356917    -11.02630857196011     11.26667925369271
  O          21.10917800099762    -10.20382554192161     11.15985474104705
  N          20.03583168342600    -11.81427048880882     12.40426648464165
  H          19.31747200150940    -10.95806363572441      6.89998079455099
  H          18.90432444313634    -12.36744057996187      7.87486126569305
  H          20.57260490531345    -11.77709078342042      7.85406800169342
  H          19.92977807248331     -9.73265808282926      9.10465549773770
  H          18.22764536079168    -10.10307675100308      8.92674378992614
  H          18.61825999531490    -12.05355288106570     10.40767992203069
  H          20.50955903186440    -11.41670438869954     13.20557475936065
  H          19.08463045962781    -12.12060280251434     12.60044653341947
