114
Coordinates from ORCA-job 01_xtb_cit_react E -175.064994617420
  C      16.425000    -11.649000     12.868000
  C      15.350000    -12.246000     13.708000
  C      14.004000    -12.532000     13.152000
  C      13.732000    -12.193000     11.726000
  C      14.748000    -11.405000     10.969000
  C      16.005000    -10.947000     11.603000
  C      12.958000    -13.155000     14.010000
  O      12.822000    -12.795000     15.208000
  O      12.212000    -14.050000     13.533000
  O      15.871000     -9.593000     11.880000
  O      17.283000    -12.685000     12.524000
  C      16.799000    -13.945000     12.241000
  C      16.453000    -14.296000     10.833000
  O      17.307000    -14.128000      9.925000
  O      15.314000    -14.757000     10.553000
  C      16.920000    -14.948000     13.163000
  H      16.872698    -10.852318     13.480262
  H      15.557888    -12.479883     14.762553
  H      12.799665    -12.517741     11.240927
  H      14.558407    -11.158297      9.913921
  H      16.796921    -11.184280     10.877356
  H      15.857492     -9.456506     12.860452
  H      16.533717    -15.952748     12.936578
  H      17.403596    -14.749906     14.130933
  O      12.533000    -15.028000     10.679000
  H      13.487504    -14.934986     10.635754
  H      12.431429    -14.718542     11.582061
  C      12.785000    -13.909000      5.224000
  C      13.508000    -12.573000      5.500000
  N      14.905000    -12.753000      5.870000
  C      15.337000    -13.069000      7.090000
  N      14.481000    -13.223000      8.093000
  N      16.636000    -13.230000      7.304000
  H      13.453744    -14.682280      4.845952
  H      11.994786    -13.733306      4.479223
  H      12.373967    -14.265942      6.179848
  H      13.461963    -11.954323      4.591639
  H      13.000273    -12.090884      6.348397
  H      15.612768    -12.626386      5.132482
  H      14.826540    -13.467364      9.032036
  H      13.471332    -13.098117      7.932141
  H      16.976547    -13.474337      8.244865
  H      17.304239    -13.110693      6.529324
  C       8.413000    -16.813000     15.233000
  C       9.601000    -17.762000     15.217000
  N      10.606000    -17.438000     16.228000
  C      11.541000    -16.503000     16.080000
  N      11.591000    -15.785000     14.965000
  N      12.422000    -16.281000     17.048000
  H       7.736530    -17.001583     16.066622
  H       7.854751    -16.931669     14.292641
  H       8.804552    -15.791340     15.346573
  H       9.236006    -18.783309     15.400595
  H      10.083086    -17.668291     14.232717
  H      10.589216    -17.967380     17.111389
  H      12.314850    -15.061229     14.850554
  H      10.905956    -15.951519     14.214076
  H      13.144626    -15.556502     16.930470
  H      12.382895    -16.833260     17.916550
  C      13.998000     -9.220000      7.725000
  O      15.348000     -9.434000      8.170000
  C      13.895000     -7.944000      6.899000
  H      13.329680     -9.174594      8.584876
  H      13.699963    -10.062338      7.083407
  H      15.372531     -9.437889      9.159688
  H      13.824970     -7.076446      7.571640
  H      14.788064     -7.844864      6.264485
  H      12.997598     -7.989392      6.264485
  C      14.518000     -6.670000     12.633000
  S      13.310000     -7.773000     13.364000
  H      14.324365     -6.427597     11.588086
  H      15.506658     -7.147654     12.699340
  H      14.464406     -5.724801     13.193112
  H      13.391272     -7.698793     14.729572
  C      20.972000     -6.019000     10.964000
  C      20.412000     -6.977000     12.014000
  C      18.919000     -7.216000     11.861000
  O      18.113000     -6.312000     12.206000
  O      18.552000     -8.320000     11.413000
  H      20.586780     -5.000259     11.007275
  H      20.736423     -6.428884      9.970774
  H      22.050472     -5.943859     11.167105
  H      20.932938     -7.941482     11.922358
  H      20.572981     -6.516486     12.999906
  C      19.313000    -20.522000      7.175000
  C      18.073000    -19.686000      7.409000
  C      16.843000    -20.073000      6.887000
  C      18.140000    -18.493000      8.106000
  C      15.709000    -19.309000      7.078000
  C      17.001000    -17.711000      8.303000
  C      15.790000    -18.126000      7.781000
  O      14.652000    -17.364000      7.964000
  H      19.761228    -20.307815      6.204785
  H      19.039332    -21.586652      7.215272
  H      20.047359    -20.277044      7.956481
  H      16.772435    -21.006965      6.310173
  H      19.105479    -18.155661      8.511033
  H      14.743581    -19.643348      6.670352
  H      17.066374    -16.770598      8.869895
  H      14.701702    -16.513154      8.467677
  C      19.522000    -11.465000      7.843000
  C      18.791000    -10.970000      9.043000
  N      19.015000    -11.689000     10.262000
  C      19.955000    -11.229000     11.242000
  O      20.603000    -10.194000     11.075000
  N      20.123000    -12.001000     12.439000
  H      19.317472    -10.958064      6.899981
  H      19.266868    -12.526991      7.712297
  H      20.584146    -11.268853      8.051258
  H      19.089760     -9.924653      9.210308
  H      17.723676    -11.105075      8.813709
  H      18.488465    -12.556506     10.438337
  H      20.791401    -11.694205     13.160122
  H      19.575249    -12.862211     12.577510
114
Coordinates from ORCA-job 01_xtb_cit_react E -175.122353239630
  C      16.397836    -11.661206     12.857473
  C      15.295626    -12.241011     13.677275
  C      14.012538    -12.494740     13.119045
  C      13.751602    -12.162490     11.709404
  C      14.713238    -11.414963     10.970154
  C      15.977653    -10.949688     11.591679
  C      12.957304    -13.109711     13.975531
  O      12.833608    -12.745851     15.167148
  O      12.210120    -14.004872     13.491693
  O      15.851467     -9.583715     11.864210
  O      17.273727    -12.694845     12.507646
  C      16.793237    -13.950756     12.222399
  C      16.448874    -14.295809     10.811350
  O      17.308122    -14.122675      9.912123
  O      15.316293    -14.753541     10.529841
  C      16.911433    -14.942945     13.127571
  H      16.865570    -10.878948     13.472484
  H      15.476276    -12.481273     14.724105
  H      12.826302    -12.484942     11.228186
  H      14.525363    -11.172574      9.919879
  H      16.776832    -11.182331     10.869594
  H      15.840965     -9.451163     12.832083
  H      16.536103    -15.938083     12.896829
  H      17.379937    -14.751462     14.092563
  O      12.540185    -15.004940     10.653968
  H      13.498153    -14.924922     10.608695
  H      12.432999    -14.689587     11.560018
  C      12.785000    -13.909000      5.224000
  C      13.510075    -12.572906      5.497226
  N      14.905384    -12.751790      5.863379
  C      15.344418    -13.069084      7.086847
  N      14.492377    -13.225395      8.087821
  N      16.642709    -13.226891      7.300471
  H      13.453744    -14.682280      4.845952
  H      11.996235    -13.739718      4.486538
  H      12.370848    -14.273597      6.168416
  H      13.467670    -11.953533      4.595346
  H      13.002184    -12.086390      6.339157
  H      15.602745    -12.624754      5.132287
  H      14.834073    -13.469975      9.018947
  H      13.495824    -13.103403      7.934504
  H      16.981753    -13.471155      8.241440
  H      17.305826    -13.106649      6.536505
  C       8.413000    -16.813000     15.233000
  C       9.614273    -17.754106     15.249579
  N      10.598756    -17.393976     16.260845
  C      11.528765    -16.440305     16.093298
  N      11.580719    -15.747661     14.966954
  N      12.405202    -16.177750     17.068371
  H       7.736530    -17.001583     16.066622
  H       7.863788    -16.954606     14.298393
  H       8.778666    -15.785373     15.323645
  H       9.266097    -18.772826     15.452999
  H      10.104605    -17.689232     14.271037
  H      10.579284    -17.896435     17.146880
  H      12.295330    -15.010381     14.828359
  H      10.915387    -15.930144     14.222806
  H      13.104499    -15.450662     16.936152
  H      12.373807    -16.696991     17.941465
  C      13.998000     -9.220000      7.725000
  O      15.333345     -9.450857      8.174506
  C      13.909661     -7.936955      6.904595
  H      13.329680     -9.174594      8.584876
  H      13.702021    -10.060633      7.080347
  H      15.356194     -9.456774      9.154953
  H      13.846546     -7.074108      7.573771
  H      14.801322     -7.843346      6.278413
  H      13.018978     -7.966425      6.268591
  C      14.518000     -6.670000     12.633000
  S      13.291378     -7.772640     13.341764
  H      14.324365     -6.427597     11.588086
  H      15.496344     -7.143678     12.693582
  H      14.476392     -5.732037     13.197460
  H      13.411766     -7.674117     14.694012
  C      20.972000     -6.019000     10.964000
  C      20.395533     -6.974177     12.013685
  C      18.888856     -7.203706     11.857988
  O      18.102211     -6.290531     12.209578
  O      18.525827     -8.305612     11.407008
  H      20.586780     -5.000259     11.007275
  H      20.742360     -6.420723      9.972435
  H      22.050206     -5.948302     11.154481
  H      20.903031     -7.942739     11.920981
  H      20.563082     -6.525818     13.002512
  C      19.313000    -20.522000      7.175000
  C      18.076995    -19.678995      7.405677
  C      16.846372    -20.062043      6.882219
  C      18.144220    -18.482400      8.102635
  C      15.713149    -19.294664      7.070257
  C      17.010688    -17.698574      8.296493
  C      15.793721    -18.107155      7.774834
  O      14.654467    -17.357921      7.947201
  H      19.761228    -20.307815      6.204785
  H      19.041540    -21.581504      7.213758
  H      20.048229    -20.287083      7.950772
  H      16.774097    -20.990310      6.311090
  H      19.101548    -18.148553      8.507489
  H      14.754603    -19.623419      6.665163
  H      17.072966    -16.767429      8.856266
  H      14.705357    -16.514753      8.447470
  C      19.522000    -11.465000      7.843000
  C      18.775485    -10.957211      9.045255
  N      19.004562    -11.678074     10.263323
  C      19.925086    -11.221806     11.223280
  O      20.568509    -10.196790     11.064425
  N      20.090842    -11.988044     12.393978
  H      19.317472    -10.958064      6.899981
  H      19.271899    -12.522350      7.714539
  H      20.584283    -11.284530      8.043348
  H      19.064192     -9.913890      9.214691
  H      17.712201    -11.093265      8.812238
  H      18.483744    -12.543910     10.433389
  H      20.749446    -11.676819     13.098770
  H      19.560698    -12.844476     12.540661
114
Coordinates from ORCA-job 01_xtb_cit_react E -175.157445729100
  C      16.372933    -11.675665     12.844483
  C      15.242968    -12.239759     13.645079
  C      14.020222    -12.463300     13.088933
  C      13.767911    -12.134157     11.688546
  C      14.676527    -11.427022     10.970023
  C      15.952050    -10.953223     11.576876
  C      12.950667    -13.074205     13.944321
  O      12.840423    -12.710293     15.130448
  O      12.203911    -13.966952     13.446982
  O      15.835349     -9.575426     11.843151
  O      17.266842    -12.705428     12.490515
  C      16.787723    -13.959476     12.204829
  C      16.443720    -14.296759     10.787213
  O      17.309969    -14.116870      9.897149
  O      15.315743    -14.752237     10.504634
  C      16.901688    -14.945376     13.097137
  H      16.866066    -10.911864     13.461327
  H      15.402548    -12.485863     14.687433
  H      12.846394    -12.456116     11.211844
  H      14.492459    -11.186132      9.923719
  H      16.757829    -11.180382     10.858815
  H      15.828691     -9.446556     12.800395
  H      16.535906    -15.934468     12.861934
  H      17.354458    -14.762148     14.063578
  O      12.544332    -14.984626     10.626703
  H      13.505780    -14.918853     10.579355
  H      12.428700    -14.663417     11.533423
  C      12.785000    -13.909000      5.224000
  C      13.512123    -12.574438      5.494194
  N      14.906068    -12.752376      5.856652
  C      15.350897    -13.070687      7.083264
  N      14.500448    -13.230601      8.082316
  N      16.648982    -13.224575      7.295858
  H      13.453744    -14.682280      4.845952
  H      11.995890    -13.745957      4.492712
  H      12.366129    -14.282410      6.157881
  H      13.474088    -11.953128      4.597868
  H      13.002922    -12.081579      6.329150
  H      15.596254    -12.624347      5.129858
  H      14.839006    -13.476708      9.007478
  H      13.511107    -13.112191      7.936706
  H      16.987355    -13.468656      8.238023
  H      17.309998    -13.103138      6.541271
  C       8.413000    -16.813000     15.233000
  C       9.625848    -17.745730     15.284621
  N      10.588867    -17.349078     16.295918
  C      11.511078    -16.379173     16.103445
  N      11.564187    -15.715729     14.963623
  N      12.380781    -16.073553     17.083854
  H       7.736530    -17.001583     16.066622
  H       7.872347    -16.977257     14.302668
  H       8.753708    -15.779782     15.299380
  H       9.292371    -18.761592     15.508767
  H      10.124981    -17.713034     14.311426
  H      10.566919    -17.822770     17.188086
  H      12.265636    -14.967160     14.796007
  H      10.914898    -15.915004     14.221655
  H      13.058051    -15.340963     16.932625
  H      12.356649    -16.558592     17.966086
  C      13.998000     -9.220000      7.725000
  O      15.320533     -9.468646      8.177309
  C      13.923409     -7.929990      6.911204
  H      13.329680     -9.174594      8.584876
  H      13.703490    -10.059104      7.077036
  H      15.343364     -9.475647      9.149752
  H      13.868317     -7.070874      7.578707
  H      14.814788     -7.842296      6.291586
  H      13.037574     -7.943061      6.274232
  C      14.518000     -6.670000     12.633000
  S      13.272569     -7.775193     13.313013
  H      14.324365     -6.427597     11.588086
  H      15.489837     -7.140868     12.687588
  H      14.487575     -5.739982     13.203532
  H      13.440731     -7.649100     14.647068
  C      20.972000     -6.019000     10.964000
  C      20.379053     -6.966866     12.012221
  C      18.857009     -7.186873     11.851905
  O      18.092847     -6.264010     12.210171
  O      18.502497     -8.286137     11.397342
  H      20.586780     -5.000259     11.007275
  H      20.749758     -6.414297      9.972533
  H      22.050359     -5.953315     11.141257
  H      20.872440     -7.939096     11.919981
  H      20.551626     -6.530653     13.003917
  C      19.313000    -20.522000      7.175000
  C      18.081208    -19.673790      7.400811
  C      16.850524    -20.053413      6.875876
  C      18.148098    -18.474257      8.097202
  C      15.718054    -19.282739      7.060703
  C      17.020130    -17.688987      8.287550
  C      15.796995    -18.090346      7.766782
  O      14.655792    -17.356440      7.927068
  H      19.761228    -20.307815      6.204785
  H      19.044852    -21.578201      7.212292
  H      20.050135    -20.296550      7.946123
  H      16.776473    -20.977693      6.309728
  H      19.098828    -18.142900      8.502859
  H      14.764519    -19.606105      6.657686
  H      17.079712    -16.764312      8.841507
  H      14.707724    -16.519599      8.425515
  C      19.522000    -11.465000      7.843000
  C      18.758850    -10.942824      9.043401
  N      18.996370    -11.665467     10.260891
  C      19.900901    -11.210843     11.200188
  O      20.543344    -10.191564     11.048531
  N      20.063250    -11.975664     12.346891
  H      19.317472    -10.958064      6.899981
  H      19.278213    -12.519225      7.716965
  H      20.584481    -11.301176      8.036817
  H      19.036486     -9.900800      9.215546
  H      17.699237    -11.079774      8.807165
  H      18.480696    -12.530551     10.425469
  H      20.716645    -11.658173     13.040767
  H      19.547662    -12.829452     12.502672
114
Coordinates from ORCA-job 01_xtb_cit_react E -175.180737540980
  C      16.358613    -11.705376     12.824779
  C      15.201114    -12.253840     13.611430
  C      14.009361    -12.450423     13.060618
  C      13.760795    -12.117786     11.670134
  C      14.641067    -11.435911     10.963865
  C      15.932412    -10.954142     11.555247
  C      12.923488    -13.071829     13.906121
  O      12.837526    -12.740483     15.098165
  O      12.185900    -13.953918     13.372445
  O      15.827684     -9.563695     11.807961
  O      17.276158    -12.729220     12.465644
  C      16.792367    -13.983346     12.176439
  C      16.440094    -14.302624     10.746112
  O      17.315835    -14.106852      9.868226
  O      15.312631    -14.760387     10.469037
  C      16.893237    -14.970612     13.057881
  H      16.901493    -10.980097     13.444435
  H      15.357163    -12.511472     14.648344
  H      12.841275    -12.440721     11.203589
  H      14.464951    -11.193136      9.923838
  H      16.741502    -11.171067     10.842432
  H      15.827771     -9.434689     12.756595
  H      16.548070    -15.957213     12.809084
  H      17.302995    -14.798039     14.039487
  O      12.542777    -14.974741     10.597107
  H      13.511422    -14.930081     10.549167
  H      12.401984    -14.646076     11.500866
  C      12.785000    -13.909000      5.224000
  C      13.515334    -12.581080      5.501033
  N      14.904521    -12.761459      5.872266
  C      15.351329    -13.082854      7.102387
  N      14.504287    -13.256678      8.101778
  N      16.649998    -13.228820      7.308946
  H      13.453744    -14.682280      4.845952
  H      11.998614    -13.747936      4.495044
  H      12.349742    -14.296921      6.140368
  H      13.494777    -11.954859      4.611026
  H      12.996872    -12.071372      6.317545
  H      15.593951    -12.630787      5.152954
  H      14.843406    -13.513363      9.021797
  H      13.517519    -13.144677      7.973072
  H      16.993380    -13.472127      8.250911
  H      17.309061    -13.103414      6.561782
  C       8.413000    -16.813000     15.233000
  C       9.622520    -17.754167     15.323643
  N      10.565410    -17.324616     16.332632
  C      11.474857    -16.342741     16.100893
  N      11.522920    -15.724887     14.939996
  N      12.332359    -15.974695     17.079336
  H       7.736530    -17.001583     16.066622
  H       7.877319    -16.993279     14.307281
  H       8.738602    -15.778055     15.271601
  H       9.291817    -18.762300     15.573162
  H      10.131916    -17.773502     14.357294
  H      10.535385    -17.756513     17.238416
  H      12.198307    -14.962152     14.726395
  H      10.886963    -15.948322     14.200404
  H      12.974542    -15.224943     16.897816
  H      12.316905    -16.409024     17.980480
  C      13.998000     -9.220000      7.725000
  O      15.313337     -9.490358      8.165507
  C      13.936541     -7.919752      6.924209
  H      13.329680     -9.174594      8.584876
  H      13.701811    -10.056195      7.073308
  H      15.350435     -9.487969      9.129948
  H      13.905252     -7.065922      7.594029
  H      14.822435     -7.842051      6.301845
  H      13.047969     -7.905727      6.296705
  C      14.518000     -6.670000     12.633000
  S      13.245052     -7.784165     13.262879
  H      14.324365     -6.427597     11.588086
  H      15.489775     -7.138353     12.680231
  H      14.498700     -5.751500     13.214313
  H      13.480986     -7.644945     14.571402
  C      20.972000     -6.019000     10.964000
  C      20.362114     -6.950760     12.012173
  C      18.820269     -7.154287     11.843605
  O      18.086767     -6.219384     12.216158
  O      18.478686     -8.248881     11.379426
  H      20.586780     -5.000259     11.007275
  H      20.757733     -6.410518      9.972539
  H      22.052477     -5.963126     11.117431
  H      20.830883     -7.931005     11.919872
  H      20.541908     -6.532905     13.008635
  C      19.313000    -20.522000      7.175000
  C      18.086862    -19.669926      7.391154
  C      16.857148    -20.050509      6.867140
  C      18.151817    -18.466949      8.084658
  C      15.725532    -19.278091      7.047965
  C      17.028407    -17.681279      8.270737
  C      15.800003    -18.080201      7.754267
  O      14.654230    -17.369354      7.900622
  H      19.761228    -20.307815      6.204785
  H      19.050586    -21.576248      7.210356
  H      20.052934    -20.307511      7.941878
  H      16.781551    -20.974161      6.309949
  H      19.095968    -18.136148      8.491997
  H      14.775650    -19.597269      6.648904
  H      17.087165    -16.758701      8.818732
  H      14.708741    -16.540763      8.400375
  C      19.522000    -11.465000      7.843000
  C      18.737013    -10.919326      9.034517
  N      18.996149    -11.645624     10.245830
  C      19.893642    -11.191829     11.158402
  O      20.547267    -10.181253     11.009625
  N      20.051382    -11.967561     12.276850
  H      19.317472    -10.958064      6.899981
  H      19.285638    -12.519362      7.725583
  H      20.586084    -11.331522      8.031346
  H      18.997587     -9.876572      9.213643
  H      17.677544    -11.050976      8.801861
  H      18.487249    -12.509630     10.403693
  H      20.703323    -11.647153     12.964139
  H      19.542522    -12.816183     12.442118
114
Coordinates from ORCA-job 01_xtb_cit_react E -175.196284287550
  C      16.355701    -11.733128     12.800484
  C      15.188432    -12.270890     13.583887
  C      13.991646    -12.456203     13.036581
  C      13.741411    -12.115789     11.656118
  C      14.628120    -11.435175     10.947882
  C      15.927780    -10.952026     11.533247
  C      12.902036    -13.110476     13.862162
  O      12.839506    -12.848700     15.070574
  O      12.175471    -13.966699     13.275694
  O      15.830818     -9.555959     11.771726
  O      17.289061    -12.756516     12.441526
  C      16.794857    -14.008716     12.140765
  C      16.434788    -14.303732     10.697492
  O      17.319042    -14.090743      9.832274
  O      15.306054    -14.765804     10.429467
  C      16.864646    -15.001304     13.015629
  H      16.945420    -11.046631     13.421064
  H      15.358327    -12.544499     14.613891
  H      12.819138    -12.436918     11.201641
  H      14.459624    -11.186507      9.913220
  H      16.736873    -11.157150     10.823558
  H      15.838422     -9.420286     12.717834
  H      16.537894    -15.987197     12.747515
  H      17.218735    -14.840423     14.018821
  O      12.534555    -14.962418     10.567437
  H      13.506958    -14.941482     10.524757
  H      12.362889    -14.626481     11.464508
  C      12.785000    -13.909000      5.224000
  C      13.518565    -12.591057      5.517141
  N      14.900898    -12.777257      5.908802
  C      15.345437    -13.103255      7.140863
  N      14.504190    -13.296371      8.140553
  N      16.644688    -13.241131      7.340581
  H      13.453744    -14.682280      4.845952
  H      12.003250    -13.743027      4.492076
  H      12.329685    -14.309850      6.124166
  H      13.523557    -11.960209      4.630230
  H      12.985561    -12.059967      6.310193
  H      15.596722    -12.643797      5.198024
  H      14.847523    -13.571540      9.058445
  H      13.515461    -13.190196      8.030805
  H      16.997070    -13.483046      8.284110
  H      17.302621    -13.110809      6.595846
  C       8.413000    -16.813000     15.233000
  C       9.611421    -17.768436     15.352029
  N      10.558003    -17.307349     16.340428
  C      11.446759    -16.317336     16.053142
  N      11.478406    -15.756296     14.865003
  N      12.294044    -15.872186     17.010859
  H       7.736530    -17.001583     16.066622
  H       7.875774    -17.004225     14.311151
  H       8.734808    -15.778557     15.247436
  H       9.274258    -18.764335     15.637798
  H      10.116815    -17.850683     14.387157
  H      10.525813    -17.686227     17.267379
  H      12.121066    -14.982552     14.602771
  H      10.847732    -16.011776     14.132596
  H      12.885895    -15.093330     16.787196
  H      12.291126    -16.244099     17.937656
  C      13.998000     -9.220000      7.725000
  O      15.316232     -9.505346      8.139143
  C      13.939023     -7.910329      6.938802
  H      13.329680     -9.174594      8.584876
  H      13.696676    -10.052544      7.070796
  H      15.382114     -9.481407      9.098919
  H      13.947386     -7.062051      7.614754
  H      14.809463     -7.844323      6.295258
  H      13.034763     -7.867257      6.337556
  C      14.518000     -6.670000     12.633000
  S      13.221770     -7.795495     13.214049
  H      14.324365     -6.427597     11.588086
  H      15.493674     -7.136848     12.673937
  H      14.503670     -5.761656     13.225551
  H      13.523295     -7.690671     14.503865
  C      20.972000     -6.019000     10.964000
  C      20.351641     -6.934372     12.014711
  C      18.792919     -7.120184     11.838091
  O      18.083714     -6.177457     12.226168
  O      18.459720     -8.208246     11.360967
  H      20.586780     -5.000259     11.007275
  H      20.761403     -6.411472      9.972328
  H      22.055675     -5.972746     11.094645
  H      20.794857     -7.926011     11.922497
  H      20.537436     -6.531190     13.015047
  C      19.313000    -20.522000      7.175000
  C      18.089809    -19.667744      7.382534
  C      16.861207    -20.054733      6.862058
  C      18.150389    -18.461197      8.071962
  C      15.729773    -19.282345      7.037861
  C      17.027406    -17.674972      8.252688
  C      15.797932    -18.079129      7.741154
  O      14.646158    -17.386075      7.876005
  H      19.761228    -20.307815      6.204785
  H      19.055232    -21.576650      7.207761
  H      20.055621    -20.315762      7.940277
  H      16.785525    -20.982422      6.314723
  H      19.090931    -18.127769      8.481313
  H      14.780345    -19.600776      6.641959
  H      17.087571    -16.747937      8.795736
  H      14.705119    -16.563235      8.379578
  C      19.522000    -11.465000      7.843000
  C      18.723050    -10.896828      9.021835
  N      19.006744    -11.628042     10.224678
  C      19.913002    -11.179000     11.121523
  O      20.590385    -10.184226     10.969101
  N      20.061320    -11.972281     12.223965
  H      19.317472    -10.958064      6.899981
  H      19.291285    -12.522684      7.738908
  H      20.587321    -11.358830      8.032027
  H      18.971153     -9.852466      9.208626
  H      17.658902    -11.015679      8.799636
  H      18.500251    -12.489889     10.375920
  H      20.711822    -11.656452     12.914783
  H      19.540914    -12.810968     12.392881
114
Coordinates from ORCA-job 01_xtb_cit_react E -175.210042680750
  C      16.345689    -11.752750     12.769344
  C      15.177544    -12.282813     13.547316
  C      13.975172    -12.457768     12.998967
  C      13.727539    -12.103292     11.623963
  C      14.624650    -11.427979     10.920799
  C      15.926663    -10.951001     11.506551
  C      12.885154    -13.153988     13.792454
  O      12.837589    -12.993030     15.018807
  O      12.162281    -13.959966     13.138586
  O      15.836379     -9.554736     11.731450
  O      17.286088    -12.784775     12.419273
  C      16.777253    -14.031110     12.099860
  C      16.421408    -14.295914     10.642604
  O      17.317528    -14.067721      9.795154
  O      15.291669    -14.759024     10.376492
  C      16.795893    -15.029933     12.970178
  H      16.970482    -11.097707     13.391165
  H      15.360010    -12.574013     14.571212
  H      12.799228    -12.414925     11.177175
  H      14.462768    -11.167213      9.890178
  H      16.737652    -11.143532     10.798853
  H      15.852490     -9.406428     12.677833
  H      16.471304    -16.012627     12.682760
  H      17.103248    -14.886007     13.992196
  O      12.516008    -14.922164     10.503796
  H      13.487289    -14.934354     10.479317
  H      12.310371    -14.577050     11.390038
  C      12.785000    -13.909000      5.224000
  C      13.520654    -12.600527      5.529633
  N      14.897141    -12.790892      5.940160
  C      15.339281    -13.120742      7.171945
  N      14.502946    -13.333798      8.167671
  N      16.637913    -13.252353      7.369316
  H      13.453744    -14.682280      4.845952
  H      12.004762    -13.738025      4.489347
  H      12.315410    -14.317674      6.114933
  H      13.547288    -11.966824      4.642547
  H      12.975324    -12.049163      6.302242
  H      15.600807    -12.654274      5.235703
  H      14.849338    -13.632831      9.085986
  H      13.509996    -13.232875      8.073561
  H      16.999286    -13.493867      8.321550
  H      17.297735    -13.116854      6.626621
  C       8.413000    -16.813000     15.233000
  C       9.623816    -17.744727     15.407793
  N      10.574947    -17.200184     16.348468
  C      11.412189    -16.196481     15.963922
  N      11.415594    -15.744977     14.730695
  N      12.233357    -15.610520     16.864591
  H       7.736530    -17.001583     16.066622
  H       7.883179    -17.052661     14.316172
  H       8.707294    -15.771497     15.202589
  H       9.299250    -18.722631     15.765505
  H      10.123005    -17.910532     14.449479
  H      10.548515    -17.484794     17.309391
  H      12.011255    -14.959437     14.399451
  H      10.794160    -16.074703     14.017815
  H      12.733957    -14.791408     16.558333
  H      12.247258    -15.871305     17.829718
  C      13.998000     -9.220000      7.725000
  O      15.323672     -9.514602      8.106908
  C      13.932549     -7.901728      6.953884
  H      13.329680     -9.174594      8.584876
  H      13.690731    -10.048302      7.068471
  H      15.427433     -9.458065      9.063217
  H      13.987981     -7.060233      7.637621
  H      14.779653     -7.845433      6.277361
  H      13.005590     -7.831303      6.390347
  C      14.518000     -6.670000     12.633000
  S      13.206466     -7.810691     13.169029
  H      14.324365     -6.427597     11.588086
  H      15.498101     -7.135808     12.667091
  H      14.502257     -5.770947     13.237636
  H      13.563686     -7.773616     14.445455
  C      20.972000     -6.019000     10.964000
  C      20.345875     -6.921509     12.017058
  C      18.771894     -7.091078     11.831782
  O      18.080519     -6.143021     12.231222
  O      18.441938     -8.171688     11.341272
  H      20.586780     -5.000259     11.007275
  H      20.762542     -6.414613      9.971454
  H      22.058958     -5.979693     11.076930
  H      20.766573     -7.924919     11.926173
  H      20.534267     -6.527973     13.020093
  C      19.313000    -20.522000      7.175000
  C      18.089774    -19.667606      7.376222
  C      16.863655    -20.062672      6.855870
  C      18.142552    -18.458513      8.062208
  C      15.732142    -19.290506      7.022601
  C      17.017557    -17.670275      8.232803
  C      15.791713    -18.081834      7.720284
  O      14.633226    -17.398517      7.839414
  H      19.761228    -20.307815      6.204785
  H      19.058645    -21.578508      7.204421
  H      20.057762    -20.321511      7.940770
  H      16.790515    -20.995519      6.315459
  H      19.080797    -18.120523      8.475540
  H      14.782096    -19.608607      6.625156
  H      17.079865    -16.735718      8.770977
  H      14.696974    -16.578524      8.347588
  C      19.522000    -11.465000      7.843000
  C      18.717088    -10.877993      9.007990
  N      19.021662    -11.614830     10.205750
  C      19.944205    -11.175968     11.096246
  O      20.650746    -10.202049     10.938853
  N      20.075522    -11.986711     12.193649
  H      19.317472    -10.958064      6.899981
  H      19.296465    -12.526310      7.750864
  H      20.587427    -11.377000      8.039740
  H      18.959497     -9.832445      9.200608
  H      17.646788    -10.978214      8.796495
  H      18.512273    -12.473754     10.350889
  H      20.720488    -11.679159     12.896957
  H      19.526833    -12.808521     12.362788
114
Coordinates from ORCA-job 01_xtb_cit_react E -175.223838907770
  C      16.320220    -11.764537     12.734274
  C      15.151118    -12.292137     13.503236
  C      13.943420    -12.455700     12.947069
  C      13.706202    -12.082029     11.572651
  C      14.622033    -11.412297     10.880002
  C      15.922101    -10.949042     11.475244
  C      12.847298    -13.189112     13.694710
  O      12.796312    -13.146558     14.932695
  O      12.125522    -13.927317     12.966982
  O      15.839412     -9.555087     11.689755
  O      17.260598    -12.811809     12.398779
  C      16.737068    -14.049867     12.059636
  C      16.398721    -14.284445     10.589369
  O      17.310823    -14.044707      9.765405
  O      15.268548    -14.743846     10.312443
  C      16.699022    -15.052680     12.925778
  H      16.966326    -11.132367     13.360295
  H      15.339779    -12.602277     14.521830
  H      12.774021    -12.379843     11.123303
  H      14.468611    -11.135186      9.852773
  H      16.738145    -11.130632     10.770336
  H      15.863029     -9.391064     12.636073
  H      16.369483    -16.030344     12.620863
  H      16.965322    -14.924602     13.962618
  O      12.485979    -14.861731     10.392910
  H      13.452543    -14.912090     10.401299
  H      12.244434    -14.506243     11.264684
  C      12.785000    -13.909000      5.224000
  C      13.520512    -12.604414      5.527272
  N      14.894475    -12.793454      5.943875
  C      15.335561    -13.125604      7.174603
  N      14.499389    -13.355726      8.162626
  N      16.632522    -13.254187      7.376929
  H      13.453744    -14.682280      4.845952
  H      11.999882    -13.739682      4.491668
  H      12.313935    -14.317956      6.116024
  H      13.554873    -11.970961      4.637350
  H      12.971538    -12.038873      6.289472
  H      15.602164    -12.653715      5.241728
  H      14.844212    -13.679323      9.082473
  H      13.503329    -13.260075      8.077001
  H      16.998123    -13.497655      8.343139
  H      17.297288    -13.113154      6.639275
  C       8.413000    -16.813000     15.233000
  C       9.675765    -17.642832     15.521929
  N      10.597610    -16.933101     16.380139
  C      11.344974    -15.927758     15.842569
  N      11.321606    -15.672573     14.557683
  N      12.100494    -15.122379     16.613984
  H       7.736530    -17.001583     16.066622
  H       7.920422    -17.171991     14.331985
  H       8.629254    -15.759009     15.113679
  H       9.398042    -18.586045     15.997180
  H      10.191773    -17.915617     14.596428
  H      10.571747    -17.063237     17.375131
  H      11.856863    -14.884408     14.127418
  H      10.727730    -16.133647     13.893608
  H      12.460226    -14.288446     16.154244
  H      12.125474    -15.194092     17.612823
  C      13.998000     -9.220000      7.725000
  O      15.332325     -9.516287      8.074849
  C      13.918909     -7.894664      6.967123
  H      13.329680     -9.174594      8.584876
  H      13.686100    -10.044060      7.066054
  H      15.475532     -9.421116      9.025483
  H      14.013452     -7.060456      7.657557
  H      14.741344     -7.840923      6.258592
  H      12.971121     -7.805879      6.440865
  C      14.518000     -6.670000     12.633000
  S      13.200587     -7.828525     13.131766
  H      14.324365     -6.427597     11.588086
  H      15.501843     -7.134507     12.659506
  H      14.495690     -5.779633     13.249360
  H      13.587796     -7.859536     14.400551
  C      20.972000     -6.019000     10.964000
  C      20.344247     -6.915370     12.017365
  C      18.758221     -7.071686     11.824275
  O      18.078216     -6.119925     12.230399
  O      18.425332     -8.145274     11.322238
  H      20.586780     -5.000259     11.007275
  H      20.762886     -6.417362      9.970464
  H      22.061473     -5.982914     11.065929
  H      20.748715     -7.927202     11.926518
  H      20.532799     -6.528445     13.022550
  C      19.313000    -20.522000      7.175000
  C      18.088562    -19.668421      7.370291
  C      16.867115    -20.070595      6.843287
  C      18.131207    -18.458673      8.054604
  C      15.735703    -19.298296      6.996164
  C      17.003308    -17.667705      8.210848
  C      15.785417    -18.085522      7.688015
  O      14.621229    -17.404693      7.785223
  H      19.761228    -20.307815      6.204785
  H      19.060067    -21.580156      7.200984
  H      20.058145    -20.325002      7.942637
  H      16.799324    -21.007301      6.306478
  H      19.066204    -18.116974      8.475829
  H      14.786429    -19.614692      6.591288
  H      17.066869    -16.726581      8.745281
  H      14.687375    -16.586517      8.297472
  C      19.522000    -11.465000      7.843000
  C      18.717256    -10.864852      8.997390
  N      19.032751    -11.607363     10.195012
  C      19.968518    -11.181891     11.083682
  O      20.701576    -10.229225     10.923063
  N      20.078463    -12.006184     12.180128
  H      19.317472    -10.958064      6.899981
  H      19.300148    -12.528301      7.755835
  H      20.586453    -11.386707      8.051685
  H      18.960628     -9.819333      9.194205
  H      17.642579    -10.942711      8.791718
  H      18.517423    -12.463035     10.335536
  H      20.712921    -11.708620     12.899698
  H      19.491924    -12.803961     12.346610
114
Coordinates from ORCA-job 01_xtb_cit_react E -175.223892149230
  C      16.301293    -11.762368     12.708528
  C      15.138301    -12.286822     13.473563
  C      13.927502    -12.454948     12.905175
  C      13.692861    -12.062519     11.530150
  C      14.628031    -11.396376     10.844603
  C      15.924050    -10.949365     11.452515
  C      12.854086    -13.236786     13.606477
  O      12.803094    -13.282203     14.851843
  O      12.117969    -13.910639     12.828384
  O      15.843861     -9.559694     11.662337
  O      17.228123    -12.831963     12.391175
  C      16.691755    -14.060217     12.035019
  C      16.378688    -14.272878     10.557011
  O      17.303505    -14.026907      9.752796
  O      15.249726    -14.725495     10.260402
  C      16.596209    -15.062094     12.900679
  H      16.948685    -11.132383     13.337471
  H      15.330702    -12.617047     14.486532
  H      12.754659    -12.344368     11.075651
  H      14.477513    -11.103874      9.818761
  H      16.744905    -11.123042     10.748737
  H      15.876798     -9.377697     12.607731
  H      16.252945    -16.033127     12.582997
  H      16.834176    -14.943318     13.947002
  O      12.457510    -14.800312     10.273616
  H      13.416394    -14.882962     10.321257
  H      12.189606    -14.437661     11.134480
  C      12.785000    -13.909000      5.224000
  C      13.519275    -12.601365      5.513035
  N      14.893529    -12.785930      5.927820
  C      15.331625    -13.120822      7.158604
  N      14.491681    -13.363515      8.139373
  N      16.626270    -13.250802      7.371648
  H      13.453744    -14.682280      4.845952
  H      11.991625    -13.745638      4.497115
  H      12.325568    -14.309829      6.127478
  H      13.549671    -11.974567      4.616119
  H      12.973484    -12.029817      6.274824
  H      15.603274    -12.643658      5.225791
  H      14.834474    -13.708904      9.060988
  H      13.493694    -13.271710      8.054077
  H      16.990793    -13.498226      8.351686
  H      17.296788    -13.103813      6.638479
  C       8.413000    -16.813000     15.233000
  C       9.690263    -17.605116     15.558684
  N      10.628493    -16.819781     16.328075
  C      11.313208    -15.841375     15.679528
  N      11.245876    -15.713388     14.379913
  N      12.067200    -14.948206     16.314784
  H       7.736530    -17.001583     16.066622
  H       7.932931    -17.216582     14.342135
  H       8.606927    -15.758665     15.080025
  H       9.426603    -18.510108     16.112822
  H      10.193918    -17.951487     14.650237
  H      10.621746    -16.849767     17.333347
  H      11.743119    -14.913885     13.881182
  H      10.650531    -16.249478     13.774447
  H      12.360435    -14.136406     15.716771
  H      12.129199    -14.900485     17.316978
  C      13.998000     -9.220000      7.725000
  O      15.340669     -9.509621      8.052279
  C      13.900734     -7.890928      6.974404
  H      13.329680     -9.174594      8.584876
  H      13.683079    -10.040297      7.064162
  H      15.517104     -9.372636      8.995325
  H      14.031828     -7.062036      7.667481
  H      14.693970     -7.838912      6.231259
  H      12.931846     -7.791846      6.488043
  C      14.518000     -6.670000     12.633000
  S      13.210900     -7.847128     13.117700
  H      14.324365     -6.427597     11.588086
  H      15.505109     -7.131558     12.654827
  H      14.481565     -5.784420     13.256374
  H      13.611901     -7.959617     14.383249
  C      20.972000     -6.019000     10.964000
  C      20.346528     -6.917071     12.015282
  C      18.757729     -7.063005     11.819610
  O      18.077872     -6.112396     12.231584
  O      18.412639     -8.129248     11.307840
  H      20.586780     -5.000259     11.007275
  H      20.762105     -6.419397      9.969865
  H      22.062422     -5.980780     11.069039
  H      20.745407     -7.931874     11.922698
  H      20.534451     -6.530941     13.021063
  C      19.313000    -20.522000      7.175000
  C      18.086113    -19.669448      7.367499
  C      16.868918    -20.076786      6.831918
  C      18.120536    -18.460140      8.050743
  C      15.737603    -19.303561      6.971086
  C      16.989238    -17.666688      8.195110
  C      15.780792    -18.088957      7.657512
  O      14.613510    -17.400959      7.737422
  H      19.761228    -20.307815      6.204785
  H      19.058073    -21.580987      7.199118
  H      20.056488    -20.323697      7.945264
  H      16.806910    -21.016295      6.296319
  H      19.053136    -18.116690      8.480180
  H      14.789459    -19.618389      6.557163
  H      17.053523    -16.721713      8.728772
  H      14.680340    -16.583167      8.252538
  C      19.522000    -11.465000      7.843000
  C      18.729885    -10.863012      8.994897
  N      19.043959    -11.609952     10.194771
  C      19.991123    -11.201640     11.085272
  O      20.747582    -10.270064     10.919073
  N      20.082014    -12.030740     12.186855
  H      19.317472    -10.958064      6.899981
  H      19.299639    -12.529020      7.753656
  H      20.585270    -11.382749      8.062338
  H      18.985828     -9.818981      9.192661
  H      17.652328    -10.919259      8.792030
  H      18.520876    -12.461923     10.334742
  H      20.703690    -11.742230     12.922699
  H      19.451973    -12.797824     12.349981
114
Coordinates from ORCA-job 01_xtb_cit_react E -175.234948773890
  C      16.329593    -11.741584     12.711519
  C      15.183747    -12.259733     13.488469
  C      13.972657    -12.442541     12.923593
  C      13.716643    -12.057603     11.546836
  C      14.650482    -11.392468     10.849603
  C      15.946396    -10.948781     11.456910
  C      12.945197    -13.238266     13.632814
  O      12.934581    -13.276031     14.882580
  O      12.176737    -13.912532     12.886540
  O      15.856960     -9.563209     11.667842
  O      17.238344    -12.825239     12.404634
  C      16.700050    -14.051240     12.050822
  C      16.391121    -14.268018     10.577303
  O      17.310320    -14.023508      9.768270
  O      15.263203    -14.720735     10.279258
  C      16.588261    -15.046733     12.924053
  H      16.963282    -11.089938     13.332928
  H      15.380687    -12.590117     14.500929
  H      12.768569    -12.340289     11.103985
  H      14.489080    -11.098623      9.821532
  H      16.765226    -11.121662     10.750129
  H      15.895448     -9.371904     12.611829
  H      16.234140    -16.015622     12.609304
  H      16.829950    -14.922063     13.969440
  O      12.460884    -14.795693     10.296660
  H      13.417740    -14.876286     10.345540
  H      12.203081    -14.433760     11.163214
  C      12.785000    -13.909000      5.224000
  C      13.519185    -12.598242      5.511718
  N      14.892063    -12.784089      5.931150
  C      15.325915    -13.121678      7.164263
  N      14.485869    -13.366360      8.147997
  N      16.620553    -13.254274      7.380811
  H      13.453744    -14.682280      4.845952
  H      11.992391    -13.743893      4.496480
  H      12.332765    -14.303145      6.134309
  H      13.549328    -11.978415      4.610011
  H      12.973366    -12.029445      6.274935
  H      15.604404    -12.642457      5.230979
  H      14.834575    -13.716928      9.069922
  H      13.487993    -13.274582      8.061517
  H      16.986076    -13.502534      8.363136
  H      17.289456    -13.104784      6.644489
  C       8.413000    -16.813000     15.233000
  C       9.630299    -17.722909     15.450790
  N      10.625447    -17.062186     16.257338
  C      11.338137    -16.061391     15.697831
  N      11.266854    -15.826224     14.409411
  N      12.134353    -15.295424     16.408462
  H       7.736530    -17.001583     16.066622
  H       7.887615    -17.095104     14.320453
  H       8.698180    -15.769147     15.171557
  H       9.318862    -18.651223     15.938522
  H      10.096117    -18.010311     14.502136
  H      10.625367    -17.174998     17.258023
  H      11.789716    -14.994022     13.939781
  H      10.647319    -16.310384     13.785334
  H      12.484913    -14.429770     15.877818
  H      12.193995    -15.361887     17.412142
  C      13.998000     -9.220000      7.725000
  O      15.343352     -9.502855      8.052708
  C      13.891917     -7.893167      6.970294
  H      13.329680     -9.174594      8.584876
  H      13.681679    -10.039663      7.065585
  H      15.527574     -9.348200      8.992750
  H      14.035192     -7.063738      7.661073
  H      14.671336     -7.843466      6.211976
  H      12.914365     -7.796417      6.499964
  C      14.518000     -6.670000     12.633000
  S      13.231199     -7.856979     13.134342
  H      14.324365     -6.427597     11.588086
  H      15.507667     -7.126528     12.656302
  H      14.467130     -5.782356     13.254315
  H      13.623162     -8.013114     14.404429
  C      20.972000     -6.019000     10.964000
  C      20.352201     -6.923194     12.013041
  C      18.772540     -7.066717     11.820067
  O      18.082101     -6.122389     12.235749
  O      18.415953     -8.128889     11.304468
  H      20.586780     -5.000259     11.007275
  H      20.759194     -6.420024      9.970753
  H      22.061193     -5.975957     11.081910
  H      20.758028     -7.934700     11.918058
  H      20.539377     -6.531858     13.017461
  C      19.313000    -20.522000      7.175000
  C      18.085216    -19.669836      7.375439
  C      16.865854    -20.079392      6.844442
  C      18.121510    -18.462003      8.059805
  C      15.733888    -19.308081      6.989122
  C      16.988441    -17.669527      8.210556
  C      15.780832    -18.095650      7.674956
  O      14.614147    -17.399424      7.763949
  H      19.761228    -20.307815      6.204785
  H      19.053329    -21.580210      7.199435
  H      20.055580    -20.320688      7.945768
  H      16.803837    -21.019137      6.307885
  H      19.056722    -18.118367      8.485345
  H      14.783886    -19.624589      6.578348
  H      17.055055    -16.724007      8.744511
  H      14.683370    -16.580672      8.277777
  C      19.522000    -11.465000      7.843000
  C      18.749767    -10.869521      9.000085
  N      19.059823    -11.613467     10.200683
  C      20.012679    -11.212754     11.089689
  O      20.773922    -10.288129     10.914133
  N      20.106605    -12.032911     12.198678
  H      19.317472    -10.958064      6.899981
  H      19.295246    -12.528616      7.752051
  H      20.585206    -11.369468      8.062673
  H      19.019911     -9.826161      9.191692
  H      17.671015    -10.921037      8.801407
  H      18.533893    -12.463969     10.346256
  H      20.724888    -11.744809     12.936703
  H      19.458734    -12.784757     12.363968
114
Coordinates from ORCA-job 01_xtb_cit_react E -175.241429604330
  C      16.342206    -11.729730     12.718184
  C      15.187233    -12.228969     13.504938
  C      13.983036    -12.426911     12.937847
  C      13.726100    -12.052712     11.561752
  C      14.649511    -11.397847     10.857994
  C      15.953174    -10.949018     11.456028
  C      12.967568    -13.230695     13.656672
  O      12.979976    -13.258836     14.907887
  O      12.184051    -13.906324     12.928092
  O      15.859572     -9.558473     11.663992
  O      17.243697    -12.823274     12.419110
  C      16.700481    -14.045359     12.066215
  C      16.396901    -14.262978     10.592529
  O      17.314258    -14.012950      9.781786
  O      15.271049    -14.719111     10.290529
  C      16.569574    -15.033066     12.941210
  H      16.982577    -11.073682     13.327341
  H      15.379324    -12.554816     14.517599
  H      12.776686    -12.332555     11.126282
  H      14.480010    -11.103573      9.833033
  H      16.772378    -11.118505     10.748274
  H      15.910326     -9.361869     12.603269
  H      16.206790    -15.996532     12.627952
  H      16.811640    -14.908491     13.984161
  O      12.454719    -14.793685     10.302390
  H      13.414678    -14.878698     10.356326
  H      12.198644    -14.434176     11.171429
  C      12.785000    -13.909000      5.224000
  C      13.520821    -12.597046      5.511272
  N      14.891300    -12.783618      5.938306
  C      15.318650    -13.125591      7.173872
  N      14.476032    -13.375527      8.154013
  N      16.612976    -13.257242      7.393907
  H      13.453744    -14.682280      4.845952
  H      11.993809    -13.744187      4.497698
  H      12.333857    -14.303714      6.132508
  H      13.556416    -11.982226      4.608635
  H      12.972405    -12.026542      6.269419
  H      15.606281    -12.637910      5.245023
  H      14.827593    -13.730633      9.070994
  H      13.480177    -13.287554      8.065782
  H      16.976526    -13.503879      8.373797
  H      17.280436    -13.104615      6.658965
  C       8.413000    -16.813000     15.233000
  C       9.634311    -17.729936     15.417729
  N      10.675920    -17.071183     16.174089
  C      11.387276    -16.062377     15.609079
  N      11.290334    -15.792209     14.327181
  N      12.231706    -15.347019     16.320486
  H       7.736530    -17.001583     16.066622
  H       7.878785    -17.073081     14.321574
  H       8.701360    -15.770391     15.186014
  H       9.336150    -18.644690     15.934475
  H      10.054308    -18.042587     14.457114
  H      10.706604    -17.185685     17.172398
  H      11.804399    -14.954998     13.870627
  H      10.655717    -16.256525     13.707419
  H      12.636861    -14.492535     15.793980
  H      12.322202    -15.453729     17.314770
  C      13.998000     -9.220000      7.725000
  O      15.337983     -9.507068      8.058186
  C      13.895379     -7.891102      6.971451
  H      13.329680     -9.174594      8.584876
  H      13.681067    -10.038424      7.064483
  H      15.525135     -9.333331      8.991198
  H      14.066765     -7.064351      7.656644
  H      14.655567     -7.853288      6.195300
  H      12.909629     -7.780033      6.524613
  C      14.518000     -6.670000     12.633000
  S      13.241043     -7.865277     13.129962
  H      14.324365     -6.427597     11.588086
  H      15.508137     -7.118020     12.657882
  H      14.459462     -5.784877     13.255548
  H      13.672604     -8.059497     14.378700
  C      20.972000     -6.019000     10.964000
  C      20.341913     -6.920107     12.013693
  C      18.763673     -7.053005     11.825020
  O      18.080706     -6.109921     12.254103
  O      18.398943     -8.107919     11.299739
  H      20.586780     -5.000259     11.007275
  H      20.762296     -6.417850      9.971211
  H      22.059410     -5.977067     11.087337
  H      20.743233     -7.932192     11.919656
  H      20.533029     -6.529777     13.017526
  C      19.313000    -20.522000      7.175000
  C      18.087186    -19.668211      7.377765
  C      16.866568    -20.076222      6.848800
  C      18.126411    -18.460203      8.062608
  C      15.734404    -19.305121      6.997919
  C      16.994932    -17.669137      8.218781
  C      15.784829    -18.093081      7.685222
  O      14.620210    -17.399295      7.777856
  H      19.761228    -20.307815      6.204785
  H      19.052234    -21.578352      7.200214
  H      20.055800    -20.321844      7.943992
  H      16.803319    -21.013893      6.312603
  H      19.061146    -18.118135      8.485505
  H      14.784975    -19.620687      6.590877
  H      17.060623    -16.727146      8.751845
  H      14.689029    -16.582410      8.291109
  C      19.522000    -11.465000      7.843000
  C      18.754167    -10.866027      9.006925
  N      19.064432    -11.608617     10.205132
  C      20.020432    -11.214044     11.083691
  O      20.790477    -10.296292     10.901086
  N      20.111265    -12.028769     12.190198
  H      19.317472    -10.958064      6.899981
  H      19.291414    -12.526227      7.752672
  H      20.586450    -11.373127      8.054217
  H      19.030842     -9.824935      9.196154
  H      17.675175    -10.914344      8.811403
  H      18.539387    -12.456953     10.355428
  H      20.724150    -11.735825     12.927854
  H      19.449454    -12.764307     12.364870
114
Coordinates from ORCA-job 01_xtb_cit_react E -175.247042129990
  C      16.364041    -11.706303     12.719135
  C      15.204097    -12.187685     13.516934
  C      14.002563    -12.397340     12.948069
  C      13.742535    -12.038657     11.572394
  C      14.658637    -11.396705     10.856760
  C      15.968602    -10.943290     11.446310
  C      12.996900    -13.192221     13.683362
  O      13.048769    -13.230445     14.935878
  O      12.187255    -13.858323     12.975480
  O      15.869018     -9.547741     11.648879
  O      17.252006    -12.815150     12.435622
  C      16.698396    -14.031736     12.086634
  C      16.403760    -14.250910     10.613203
  O      17.319938    -13.994054      9.802135
  O      15.280213    -14.710485     10.304786
  C      16.538984    -15.008390     12.966936
  H      17.013173    -11.045364     13.312250
  H      15.389910    -12.501953     14.532613
  H      12.789591    -12.314055     11.148477
  H      14.478821    -11.100366      9.835936
  H      16.787030    -11.107566     10.738688
  H      15.936416     -9.340951     12.582433
  H      16.164631    -15.966435     12.655983
  H      16.775243    -14.880576     14.009196
  O      12.446658    -14.774304     10.307618
  H      13.408101    -14.869821     10.369672
  H      12.193613    -14.414247     11.175372
  C      12.785000    -13.909000      5.224000
  C      13.521881    -12.595796      5.510007
  N      14.889357    -12.782504      5.946171
  C      15.307251    -13.129657      7.184390
  N      14.460495    -13.386072      8.158938
  N      16.600965    -13.259829      7.410832
  H      13.453744    -14.682280      4.845952
  H      11.995137    -13.744185      4.498393
  H      12.335028    -14.303779      6.131521
  H      13.563144    -11.987269      4.605234
  H      12.969902    -12.022943      6.262230
  H      15.609035    -12.631444      5.261051
  H      14.816106    -13.750196      9.069641
  H      13.465722    -13.303268      8.067951
  H      16.961949    -13.504156      8.389519
  H      17.267969    -13.101247      6.678416
  C       8.413000    -16.813000     15.233000
  C       9.659563    -17.691369     15.442141
  N      10.692050    -16.982272     16.166060
  C      11.362016    -15.951046     15.582328
  N      11.269512    -15.731645     14.295022
  N      12.162734    -15.182180     16.289255
  H       7.736530    -17.001583     16.066622
  H       7.893053    -17.097169     14.322469
  H       8.672801    -15.763749     15.173913
  H       9.391814    -18.589885     15.998687
  H      10.078923    -18.028038     14.490133
  H      10.706669    -17.049476     17.168581
  H      11.757563    -14.886190     13.812720
  H      10.662362    -16.252759     13.694031
  H      12.517970    -14.297388     15.749792
  H      12.234970    -15.268029     17.284204
  C      13.998000     -9.220000      7.725000
  O      15.332687     -9.513336      8.060585
  C      13.896744     -7.889381      6.972329
  H      13.329680     -9.174594      8.584876
  H      13.679092    -10.036959      7.064096
  H      15.531319     -9.305873      8.982666
  H      14.095515     -7.065730      7.652168
  H      14.636291     -7.861374      6.177409
  H      12.902516     -7.765893      6.550051
  C      14.518000     -6.670000     12.633000
  S      13.258987     -7.882849     13.122165
  H      14.324365     -6.427597     11.588086
  H      15.512201     -7.104212     12.657656
  H      14.445806     -5.788922     13.259121
  H      13.724372     -8.109700     14.349917
  C      20.972000     -6.019000     10.964000
  C      20.332700     -6.916754     12.013821
  C      18.758102     -7.036519     11.828246
  O      18.083259     -6.094848     12.272113
  O      18.382126     -8.081284     11.288847
  H      20.586780     -5.000259     11.007275
  H      20.765471     -6.416145      9.971585
  H      22.057300     -5.978023     11.093781
  H      20.730319     -7.928525     11.919891
  H      20.527866     -6.527488     13.017159
  C      19.313000    -20.522000      7.175000
  C      18.089456    -19.666949      7.384327
  C      16.867061    -20.074222      6.859964
  C      18.132060    -18.460326      8.072261
  C      15.734718    -19.304922      7.017123
  C      17.002297    -17.671010      8.236248
  C      15.789569    -18.094123      7.706730
  O      14.627875    -17.402015      7.802113
  H      19.761228    -20.307815      6.204785
  H      19.050465    -21.576703      7.200454
  H      20.057315    -20.324103      7.941909
  H      16.802533    -21.009570      6.322665
  H      19.067669    -18.119459      8.490739
  H      14.784837    -19.619379      6.614642
  H      17.067512    -16.730185      8.767180
  H      14.696890    -16.586409      8.314490
  C      19.522000    -11.465000      7.843000
  C      18.763584    -10.858065      9.013659
  N      19.074610    -11.597416     10.210395
  C      20.040144    -11.211253     11.076608
  O      20.821318    -10.302170     10.884836
  N      20.127209    -12.020568     12.183002
  H      19.317472    -10.958064      6.899981
  H      19.284569    -12.523068      7.753598
  H      20.588398    -11.379133      8.044141
  H      19.051026     -9.819694      9.196558
  H      17.684693    -10.899380      8.822829
  H      18.549268    -12.443287     10.368858
  H      20.729319    -11.719490     12.925056
  H      19.437860    -12.726210     12.368161
114
Coordinates from ORCA-job 01_xtb_cit_react E -175.251119157290
  C      16.370277    -11.689203     12.718730
  C      15.206919    -12.161778     13.522874
  C      14.008407    -12.389303     12.946466
  C      13.749702    -12.030851     11.572596
  C      14.666126    -11.394995     10.848810
  C      15.975436    -10.941347     11.436311
  C      13.017003    -13.208326     13.671069
  O      13.091906    -13.283665     14.924938
  O      12.191055    -13.860492     12.960588
  O      15.872372     -9.543097     11.634346
  O      17.243646    -12.812048     12.449692
  C      16.676662    -14.020882     12.097216
  C      16.398785    -14.238689     10.622830
  O      17.317254    -13.975248      9.815790
  O      15.279352    -14.699877     10.301297
  C      16.481780    -14.989754     12.980424
  H      17.021700    -11.022826     13.301605
  H      15.386745    -12.473300     14.540027
  H      12.794250    -12.299471     11.154830
  H      14.479223    -11.096355      9.831106
  H      16.794556    -11.099818     10.728104
  H      15.958809     -9.325410     12.563715
  H      16.095067    -15.942104     12.666168
  H      16.703259    -14.859495     14.025778
  O      12.439030    -14.751964     10.282907
  H      13.398270    -14.857533     10.354938
  H      12.189347    -14.391833     11.149542
  C      12.785000    -13.909000      5.224000
  C      13.520894    -12.592944      5.503514
  N      14.886797    -12.777406      5.944001
  C      15.295850    -13.131049      7.182891
  N      14.443431    -13.394691      8.150787
  N      16.588160    -13.260672      7.417847
  H      13.453744    -14.682280      4.845952
  H      11.993556    -13.746035      4.499681
  H      12.339698    -14.301128      6.135009
  H      13.562492    -11.991133      4.594553
  H      12.967465    -12.019494      6.254209
  H      15.610850    -12.618758      5.264722
  H      14.800695    -13.770869      9.055433
  H      13.448764    -13.314894      8.053845
  H      16.943176    -13.503877      8.396824
  H      17.257554    -13.094942      6.689126
  C       8.413000    -16.813000     15.233000
  C       9.641604    -17.727169     15.395954
  N      10.725275    -17.053204     16.074971
  C      11.385241    -16.021415     15.472236
  N      11.240440    -15.799883     14.193453
  N      12.230925    -15.273164     16.148490
  H       7.736530    -17.001583     16.066622
  H       7.875193    -17.053187     14.320262
  H       8.701222    -15.768706     15.203965
  H       9.373499    -18.617565     15.964647
  H      10.011797    -18.069600     14.425689
  H      10.763153    -17.111934     17.078920
  H      11.708961    -14.927488     13.696650
  H      10.611669    -16.334180     13.625513
  H      12.630002    -14.403797     15.586131
  H      12.340715    -15.374628     17.139099
  C      13.998000     -9.220000      7.725000
  O      15.329280     -9.520658      8.063473
  C      13.898621     -7.887836      6.974376
  H      13.329680     -9.174594      8.584876
  H      13.677044    -10.034745      7.062799
  H      15.537738     -9.275679      8.974974
  H      14.124734     -7.067878      7.650351
  H      14.617961     -7.868859      6.160596
  H      12.895872     -7.751943      6.576333
  C      14.518000     -6.670000     12.633000
  S      13.275991     -7.897856     13.121268
  H      14.324365     -6.427597     11.588086
  H      15.516493     -7.093393     12.657515
  H      14.433947     -5.790863     13.261486
  H      13.768590     -8.160712     14.330746
  C      20.972000     -6.019000     10.964000
  C      20.327114     -6.917429     12.012118
  C      18.757192     -7.026660     11.830238
  O      18.086735     -6.086583     12.285934
  O      18.367654     -8.061822     11.278514
  H      20.586780     -5.000259     11.007275
  H      20.768753     -6.415247      9.970910
  H      22.055444     -5.978188     11.103078
  H      20.724375     -7.928581     11.916256
  H      20.525887     -6.528883     13.015240
  C      19.313000    -20.522000      7.175000
  C      18.088905    -19.667009      7.385464
  C      16.866243    -20.073291      6.860555
  C      18.132627    -18.460172      8.073154
  C      15.733335    -19.303334      7.017389
  C      17.002823    -17.671590      8.239387
  C      15.789796    -18.092768      7.707389
  O      14.629107    -17.397806      7.804760
  H      19.761228    -20.307815      6.204785
  H      19.049705    -21.576526      7.201695
  H      20.057314    -20.322079      7.941859
  H      16.802120    -21.008390      6.322355
  H      19.068916    -18.120153      8.491520
  H      14.783487    -19.617677      6.614382
  H      17.066584    -16.731237      8.771063
  H      14.698797    -16.582920      8.319239
  C      19.522000    -11.465000      7.843000
  C      18.774616    -10.853693      9.020173
  N      19.079858    -11.593012     10.217849
  C      20.056714    -11.219751     11.078855
  O      20.850643    -10.322010     10.880325
  N      20.134873    -12.026361     12.189884
  H      19.317472    -10.958064      6.899981
  H      19.275541    -12.520863      7.752005
  H      20.590417    -11.383871      8.036869
  H      19.075555     -9.818671      9.197821
  H      17.696143    -10.885696      8.831763
  H      18.551122    -12.436630     10.382379
  H      20.722499    -11.717338     12.941040
  H      19.410571    -12.696420     12.380630
114
Coordinates from ORCA-job 01_xtb_cit_react E -175.252663588140
  C      16.389076    -11.675499     12.718972
  C      15.224481    -12.129019     13.535017
  C      14.030053    -12.372946     12.958903
  C      13.766904    -12.029404     11.583340
  C      14.679948    -11.402833     10.844895
  C      15.988629    -10.945724     11.426177
  C      13.052660    -13.180922     13.691394
  O      13.159178    -13.253254     14.933240
  O      12.197787    -13.819835     13.007105
  O      15.878530     -9.544917     11.619197
  O      17.248255    -12.814248     12.467720
  C      16.667780    -14.014929     12.109868
  C      16.403785    -14.228480     10.635768
  O      17.320208    -13.950526      9.831274
  O      15.290005    -14.695798     10.303622
  C      16.447927    -14.978639     12.990743
  H      17.046248    -11.003355     13.287186
  H      15.402282    -12.437262     14.552956
  H      12.804858    -12.296548     11.177813
  H      14.480450    -11.101293      9.830599
  H      16.807271    -11.095247     10.714337
  H      15.999726     -9.313478     12.544252
  H      16.061543    -15.928927     12.668523
  H      16.669132    -14.849699     14.032069
  O      12.440673    -14.746053     10.280314
  H      13.396914    -14.859620     10.356090
  H      12.198250    -14.388193     11.148181
  C      12.785000    -13.909001      5.224001
  C      13.519132    -12.590700      5.497821
  N      14.882477    -12.773719      5.945727
  C      15.281125    -13.139468      7.184404
  N      14.422725    -13.415041      8.145471
  N      16.572226    -13.266681      7.428012
  H      13.453745    -14.682279      4.845952
  H      11.991711    -13.747721      4.500904
  H      12.343256    -14.299846      6.137562
  H      13.564608    -11.996817      4.583699
  H      12.961606    -12.014380      6.243945
  H      15.612389    -12.601223      5.274834
  H      14.784198    -13.809308      9.041759
  H      13.428611    -13.338805      8.043127
  H      16.919476    -13.508484      8.406971
  H      17.245705    -13.089006      6.704316
  C       8.412999    -16.813004     15.233001
  C       9.636334    -17.758349     15.383509
  N      10.746903    -17.095902     16.046365
  C      11.379457    -16.032946     15.446114
  N      11.199088    -15.818997     14.152034
  N      12.220731    -15.260512     16.147991
  H       7.736528    -17.001581     16.066622
  H       7.865271    -17.028964     14.308054
  H       8.715572    -15.760912     15.230117
  H       9.380660    -18.649252     15.972724
  H       9.971341    -18.112784     14.398276
  H      10.781399    -17.119179     17.076013
  H      11.628762    -14.895450     13.657034
  H      10.577431    -16.397731     13.591505
  H      12.636004    -14.343383     15.622489
  H      12.341426    -15.373437     17.150295
  C      13.998001     -9.220000      7.724999
  O      15.324996     -9.537661      8.067621
  C      13.904909     -7.884545      6.979421
  H      13.329681     -9.174595      8.584877
  H      13.673833    -10.030442      7.059763
  H      15.549421     -9.238993      8.966102
  H      14.161389     -7.068693      7.651066
  H      14.603324     -7.877153      6.146425
  H      12.894773     -7.733414      6.604848
  C      14.518001     -6.670000     12.632999
  S      13.283026     -7.903303     13.121666
  H      14.324364     -6.427596     11.588086
  H      15.520754     -7.083097     12.659563
  H      14.425451     -5.791343     13.261525
  H      13.797949     -8.191261     14.310671
  C      20.972000     -6.019000     10.963999
  C      20.320029     -6.916568     12.011146
  C      18.752299     -7.010383     11.835764
  O      18.089295     -6.073081     12.313330
  O      18.344724     -8.030520     11.264253
  H      20.586780     -5.000259     11.007275
  H      20.772148     -6.415117      9.970178
  H      22.053991     -5.979575     11.112000
  H      20.715149     -7.928653     11.913775
  H      20.525213     -6.528787     13.013567
  C      19.312999    -20.521999      7.175001
  C      18.089182    -19.668190      7.382534
  C      16.866058    -20.073320      6.857834
  C      18.136151    -18.460271      8.066660
  C      15.732902    -19.302537      7.014958
  C      17.006600    -17.674346      8.237097
  C      15.792158    -18.092470      7.705420
  O      14.632719    -17.396337      7.813031
  H      19.761228    -20.307815      6.204785
  H      19.050001    -21.576751      7.203569
  H      20.056569    -20.319036      7.942179
  H      16.801346    -21.009222      6.320376
  H      19.073297    -18.121626      8.485122
  H      14.782267    -19.617779      6.613874
  H      17.069366    -16.736945      8.770627
  H      14.705683    -16.584664      8.333300
  C      19.522001    -11.465000      7.842998
  C      18.786138    -10.848425      9.024623
  N      19.086921    -11.588548     10.221642
  C      20.081566    -11.232922     11.071083
  O      20.891518    -10.350905     10.862018
  N      20.152780    -12.036693     12.185962
  H      19.317472    -10.958064      6.899981
  H      19.264891    -12.518758      7.750871
  H      20.592820    -11.390903      8.028996
  H      19.101191     -9.817020      9.195740
  H      17.707490    -10.869936      8.840534
  H      18.555967    -12.429985     10.394711
  H      20.720130    -11.713355     12.948209
  H      19.380705    -12.659016     12.393861
114
Coordinates from ORCA-job 01_xtb_cit_react E -175.257062145910
  C      16.395764    -11.664035     12.719454
  C      15.233531    -12.113852     13.538188
  C      14.038169    -12.366973     12.965320
  C      13.774349    -12.026356     11.587121
  C      14.687344    -11.401234     10.845951
  C      15.994835    -10.936852     11.423763
  C      13.049901    -13.175771     13.705827
  O      13.155651    -13.268544     14.952439
  O      12.193754    -13.806129     13.016464
  O      15.878579     -9.535982     11.609687
  O      17.250867    -12.805671     12.474877
  C      16.658497    -14.001327     12.115588
  C      16.396946    -14.217488     10.640658
  O      17.313977    -13.938499      9.838055
  O      15.285257    -14.690212     10.308030
  C      16.396231    -14.950491     13.003824
  H      17.059453    -10.995503     13.283807
  H      15.414381    -12.406711     14.561133
  H      12.809828    -12.292961     11.183795
  H      14.484780    -11.102621      9.830597
  H      16.812881    -11.086228     10.712267
  H      16.000409     -9.304603     12.532928
  H      15.982897    -15.890875     12.685888
  H      16.570749    -14.804707     14.055984
  O      12.441254    -14.742351     10.291542
  H      13.398038    -14.857125     10.366405
  H      12.198291    -14.381777     11.157859
  C      12.785000    -13.909001      5.224001
  C      13.517687    -12.591817      5.499371
  N      14.879250    -12.776048      5.951537
  C      15.274936    -13.146263      7.188842
  N      14.415789    -13.421623      8.148471
  N      16.565581    -13.269889      7.434860
  H      13.453745    -14.682279      4.845952
  H      11.991399    -13.747805      4.500698
  H      12.341347    -14.301554      6.136128
  H      13.567719    -11.998844      4.584726
  H      12.957638    -12.012916      6.241504
  H      15.611077    -12.592656      5.286297
  H      14.777701    -13.813902      9.045149
  H      13.421406    -13.347638      8.043858
  H      16.909672    -13.508458      8.414564
  H      17.241185    -13.086487      6.715162
  C       8.412999    -16.813004     15.233001
  C       9.621283    -17.760041     15.363778
  N      10.742501    -17.117087     16.009477
  C      11.368701    -16.051688     15.416503
  N      11.196274    -15.810515     14.140673
  N      12.193125    -15.300284     16.115882
  H       7.736528    -17.001581     16.066622
  H       7.867463    -17.009239     14.313288
  H       8.726451    -15.774688     15.239410
  H       9.361431    -18.641476     15.951888
  H       9.942894    -18.115799     14.381045
  H      10.774810    -17.141524     17.016628
  H      11.623267    -14.890169     13.662922
  H      10.586442    -16.373968     13.582869
  H      12.613419    -14.383048     15.617293
  H      12.303469    -15.438367     17.102714
  C      13.998001     -9.220000      7.724999
  O      15.324384     -9.540831      8.067224
  C      13.909458     -7.883700      6.982426
  H      13.329681     -9.174595      8.584877
  H      13.672513    -10.028243      7.057888
  H      15.550149     -9.236449      8.958349
  H      14.191216     -7.072530      7.648644
  H      14.590636     -7.885523      6.135423
  H      12.894324     -7.716739      6.629532
  C      14.518001     -6.670000     12.632999
  S      13.286427     -7.910858     13.119162
  H      14.324364     -6.427596     11.588086
  H      15.522545     -7.078229     12.660029
  H      14.423087     -5.790010     13.259582
  H      13.827486     -8.222577     14.293199
  C      20.972000     -6.019000     10.963999
  C      20.325463     -6.920770     12.009278
  C      18.753753     -7.001670     11.853116
  O      18.102709     -6.081063     12.374716
  O      18.335820     -8.001593     11.257477
  H      20.586780     -5.000259     11.007275
  H      20.771511     -6.414226      9.969587
  H      22.054691     -5.980110     11.107892
  H      20.711054     -7.935956     11.895299
  H      20.546697     -6.546518     13.013292
  C      19.312999    -20.521999      7.175001
  C      18.089744    -19.666607      7.382653
  C      16.865629    -20.070207      6.859976
  C      18.137950    -18.459126      8.068642
  C      15.732805    -19.300420      7.021370
  C      17.008201    -17.673119      8.240548
  C      15.792370    -18.091831      7.714113
  O      14.632558    -17.397757      7.829114
  H      19.761228    -20.307815      6.204785
  H      19.049998    -21.577006      7.202654
  H      20.057223    -20.321107      7.942180
  H      16.798940    -21.006280      6.322658
  H      19.076170    -18.119945      8.484625
  H      14.781672    -19.615402      6.620625
  H      17.068969    -16.734527      8.775291
  H      14.706783    -16.587092      8.351373
  C      19.522001    -11.465000      7.842998
  C      18.792586    -10.844178      9.025015
  N      19.090414    -11.588288     10.221753
  C      20.094481    -11.248064     11.067069
  O      20.918434    -10.381017     10.854999
  N      20.156597    -12.054095     12.182626
  H      19.317472    -10.958064      6.899981
  H      19.259043    -12.517254      7.753376
  H      20.593623    -11.400394      8.025166
  H      19.111169     -9.813515      9.196746
  H      17.713750    -10.862925      8.841255
  H      18.556112    -12.427585     10.395007
  H      20.724127    -11.731751     12.945007
  H      19.378625    -12.657390     12.393151
114
Coordinates from ORCA-job 01_xtb_cit_react E -175.258572984280
  C      16.401527    -11.644783     12.722261
  C      15.238585    -12.082469     13.545417
  C      14.046205    -12.350379     12.974193
  C      13.783577    -12.021186     11.592419
  C      14.696105    -11.399117     10.848076
  C      16.001568    -10.924460     11.421849
  C      13.053806    -13.159613     13.719635
  O      13.163026    -13.263595     14.967988
  O      12.195757    -13.781905     13.026369
  O      15.876838     -9.523391     11.597775
  O      17.249298    -12.793525     12.483782
  C      16.639349    -13.981558     12.124970
  C      16.389814    -14.203271     10.648883
  O      17.308111    -13.920503      9.849406
  O      15.281703    -14.683208     10.314403
  C      16.364639    -14.927371     13.014328
  H      17.073690    -10.978856     13.279810
  H      15.419951    -12.354726     14.574449
  H      12.818553    -12.289688     11.190793
  H      14.489965    -11.105191      9.831799
  H      16.819553    -11.074041     10.710506
  H      15.999403     -9.290405     12.520013
  H      15.945497    -15.865072     12.696485
  H      16.569235    -14.796693     14.064191
  O      12.445558    -14.735863     10.307323
  H      13.402560    -14.851764     10.380463
  H      12.203155    -14.370199     11.171481
  C      12.785000    -13.909001      5.224001
  C      13.516111    -12.592389      5.499459
  N      14.876068    -12.777533      5.956339
  C      15.268447    -13.153137      7.192668
  N      14.408122    -13.429475      8.150548
  N      16.558678    -13.273052      7.442396
  H      13.453745    -14.682279      4.845952
  H      11.990500    -13.748861      4.501072
  H      12.340279    -14.302884      6.135276
  H      13.570629    -12.001192      4.583737
  H      12.952962    -12.010470      6.237201
  H      15.610288    -12.578959      5.298222
  H      14.770859    -13.819604      9.048365
  H      13.413777    -13.359388      8.042689
  H      16.898399    -13.507368      8.424694
  H      17.237683    -13.081849      6.728224
  C       8.412999    -16.813004     15.233001
  C       9.618627    -17.760577     15.347023
  N      10.750078    -17.131656     15.986937
  C      11.368622    -16.057464     15.400611
  N      11.197520    -15.797775     14.132434
  N      12.183232    -15.310306     16.102809
  H       7.736528    -17.001581     16.066622
  H       7.865300    -16.995407     14.314631
  H       8.731388    -15.778463     15.246352
  H       9.357099    -18.643860     15.928904
  H       9.934038    -18.109877     14.360842
  H      10.776547    -17.158160     16.989487
  H      11.622463    -14.879452     13.668493
  H      10.597633    -16.363137     13.568362
  H      12.606171    -14.396552     15.621635
  H      12.299281    -15.471365     17.084335
  C      13.998001     -9.220000      7.724999
  O      15.323189     -9.546332      8.066887
  C      13.915809     -7.881400      6.986875
  H      13.329681     -9.174595      8.584877
  H      13.670813    -10.025036      7.055099
  H      15.551746     -9.232437      8.951516
  H      14.229762     -7.077129      7.646909
  H      14.574990     -7.893655      6.122717
  H      12.895365     -7.693867      6.660710
  C      14.518001     -6.670000     12.632999
  S      13.293071     -7.921207     13.115030
  H      14.324364     -6.427596     11.588086
  H      15.525748     -7.071402     12.662213
  H      14.417746     -5.789743     13.258489
  H      13.867446     -8.266781     14.265468
  C      20.972000     -6.019000     10.963999
  C      20.336426     -6.921739     12.014714
  C      18.758963     -6.992748     11.888962
  O      18.122101     -6.097790     12.468144
  O      18.326780     -7.961125     11.254512
  H      20.586780     -5.000259     11.007275
  H      20.764496     -6.415814      9.971198
  H      22.056345     -5.979955     11.096812
  H      20.712656     -7.939195     11.887008
  H      20.578967     -6.556790     13.017097
  C      19.312999    -20.521999      7.175001
  C      18.091230    -19.664605      7.383426
  C      16.865585    -20.066370      6.863461
  C      18.142157    -18.457055      8.069921
  C      15.733433    -19.296924      7.029249
  C      17.012672    -17.671188      8.244732
  C      15.794337    -18.090355      7.725233
  O      14.634270    -17.398739      7.850736
  H      19.761228    -20.307815      6.204785
  H      19.049132    -21.576925      7.201460
  H      20.057993    -20.323888      7.942145
  H      16.797050    -21.000795      6.323281
  H      19.081734    -18.117809      8.482713
  H      14.780983    -19.612628      6.631821
  H      17.070750    -16.732661      8.781055
  H      14.710654    -16.589925      8.375957
  C      19.522001    -11.465000      7.842998
  C      18.800074    -10.839069      9.026481
  N      19.093792    -11.587411     10.222609
  C      20.110001    -11.266695     11.061044
  O      20.947351    -10.413813     10.846653
  N      20.161833    -12.075626     12.176802
  H      19.317472    -10.958064      6.899981
  H      19.251616    -12.515640      7.756109
  H      20.594960    -11.410866      8.020466
  H      19.123260     -9.809994      9.198736
  H      17.721059    -10.853625      8.843655
  H      18.555337    -12.424171     10.396074
  H      20.729597    -11.753492     12.939451
  H      19.370273    -12.657057     12.392229
114
Coordinates from ORCA-job 01_xtb_cit_react E -175.260625833570
  C      16.409462    -11.606937     12.727083
  C      15.244481    -12.022447     13.558631
  C      14.058633    -12.317308     12.990115
  C      13.798911    -12.012423     11.601634
  C      14.710471    -11.397402     10.850630
  C      16.011734    -10.902842     11.416841
  C      13.060909    -13.124634     13.742612
  O      13.174920    -13.237829     14.991703
  O      12.199879    -13.735024     13.044484
  O      15.870363     -9.501255     11.572680
  O      17.245563    -12.769493     12.504156
  C      16.608785    -13.944466     12.142756
  C      16.376326    -14.175783     10.666035
  O      17.296959    -13.885611      9.872936
  O      15.275802    -14.671291     10.326686
  C      16.258239    -14.859120     13.038867
  H      17.093711    -10.942295     13.271644
  H      15.427957    -12.265701     14.595116
  H      12.834103    -12.286225     11.203343
  H      14.498050    -11.112753      9.832759
  H      16.830397    -11.052273     10.706605
  H      15.994508     -9.262953     12.493325
  H      15.798147    -15.778490     12.724231
  H      16.400861    -14.706204     14.096481
  O      12.453237    -14.728287     10.340292
  H      13.410790    -14.844764     10.409166
  H      12.212794    -14.351681     11.199955
  C      12.785000    -13.909001      5.224001
  C      13.512927    -12.592562      5.498545
  N      14.869911    -12.778713      5.964533
  C      15.255485    -13.164123      7.199636
  N      14.392244    -13.445544      8.153143
  N      16.544944    -13.278596      7.456847
  H      13.453745    -14.682279      4.845952
  H      11.988721    -13.751464      4.501938
  H      12.339099    -14.304740      6.134269
  H      13.575433    -12.005470      4.580507
  H      12.943594    -12.005038      6.227883
  H      15.608529    -12.552279      5.320478
  H      14.756794    -13.832317      9.052793
  H      13.398122    -13.384848      8.038390
  H      16.875796    -13.505524      8.444468
  H      17.230678    -13.070620      6.754089
  C       8.412999    -16.813004     15.233001
  C       9.620924    -17.756545     15.324931
  N      10.764364    -17.142237     15.960874
  C      11.367377    -16.051915     15.384412
  N      11.195684    -15.769808     14.122533
  N      12.165169    -15.298334     16.095678
  H       7.736528    -17.001581     16.066622
  H       7.861500    -16.980611     14.315189
  H       8.733369    -15.778978     15.253696
  H       9.360407    -18.646810     15.896174
  H       9.931476    -18.092489     14.332417
  H      10.774977    -17.166802     16.963643
  H      11.619858    -14.855447     13.678082
  H      10.612939    -16.344464     13.547018
  H      12.593424    -14.394319     15.635818
  H      12.293874    -15.490583     17.071276
  C      13.998001     -9.220000      7.724999
  O      15.319678     -9.559678      8.067098
  C      13.929835     -7.875415      6.997359
  H      13.329681     -9.174595      8.584877
  H      13.667322    -10.017926      7.048888
  H      15.554544     -9.225976      8.940542
  H      14.287733     -7.085221      7.652169
  H      14.560528     -7.898395      6.112287
  H      12.905354     -7.655968      6.705481
  C      14.518001     -6.670000     12.632999
  S      13.308559     -7.942026     13.106845
  H      14.324364     -6.427596     11.588086
  H      15.532428     -7.057079     12.667745
  H      14.405312     -5.790764     13.258038
  H      13.928611     -8.331782     14.221009
  C      20.972000     -6.019000     10.963999
  C      20.350487     -6.920955     12.023592
  C      18.765393     -6.979536     11.941223
  O      18.150808     -6.134012     12.610440
  O      18.309586     -7.891182     11.243908
  H      20.586780     -5.000259     11.007275
  H      20.753731     -6.418318      9.973852
  H      22.058522     -5.980434     11.080793
  H      20.713512     -7.941312     11.879645
  H      20.621871     -6.567148     13.022440
  C      19.312999    -20.521999      7.175001
  C      18.094169    -19.661121      7.385079
  C      16.865448    -20.060726      6.871396
  C      18.150233    -18.453550      8.072257
  C      15.733978    -19.292693      7.046371
  C      17.021361    -17.668559      8.253444
  C      15.798142    -18.088984      7.746810
  O      14.637941    -17.402193      7.892480
  H      19.761228    -20.307815      6.204785
  H      19.047162    -21.576592      7.199519
  H      20.059314    -20.328603      7.942034
  H      16.792884    -20.994337      6.330099
  H      19.092135    -18.114662      8.479733
  H      14.779377    -19.609399      6.654525
  H      17.074475    -16.730394      8.792181
  H      14.719235    -16.597459      8.423518
  C      19.522001    -11.465000      7.842998
  C      18.813300    -10.829487      9.029572
  N      19.098973    -11.582664     10.225788
  C      20.136995    -11.296251     11.049646
  O      20.995160    -10.466344     10.830162
  N      20.174240    -12.110816     12.164885
  H      19.317472    -10.958064      6.899981
  H      19.237167    -12.512670      7.761502
  H      20.597183    -11.429030      8.012101
  H      19.144754     -9.803336      9.201249
  H      17.733938    -10.836201      8.848928
  H      18.552963    -12.414822     10.400338
  H      20.741702    -11.786090     12.927472
  H      19.355942    -12.649832     12.390559
114
Coordinates from ORCA-job 01_xtb_cit_react E -175.263678934250
  C      16.419856    -11.478197     12.741886
  C      15.244706    -11.815285     13.599778
  C      14.077767    -12.185891     13.041359
  C      13.835026    -11.975485     11.630160
  C      14.744682    -11.390997     10.855184
  C      16.030742    -10.835138     11.398338
  C      13.066300    -12.975987     13.808946
  O      13.183087    -13.079330     15.053341
  O      12.201964    -13.568748     13.104875
  O      15.831934     -9.433762     11.487450
  O      17.208986    -12.691230     12.557525
  C      16.491125    -13.824151     12.197222
  C      16.331707    -14.093619     10.720163
  O      17.257444    -13.769821      9.948721
  O      15.260997    -14.642894     10.360950
  C      16.038768    -14.693762     13.094457
  H      17.140204    -10.817724     13.243787
  H      15.425476    -11.956201     14.657274
  H      12.876620    -12.275207     11.239054
  H      14.516495    -11.141061      9.831563
  H      16.853239    -10.984446     10.693543
  H      15.960513     -9.167026     12.401384
  H      15.540171    -15.591837     12.774791
  H      16.224794    -14.582165     14.148776
  O      12.472313    -14.717581     10.452543
  H      13.432421    -14.830809     10.502564
  H      12.241044    -14.299965     11.296330
  C      12.785000    -13.909001      5.224001
  C      13.506485    -12.592751      5.490518
  N      14.854150    -12.781919      5.984758
  C      15.215754    -13.194846      7.218675
  N      14.340798    -13.502185      8.153331
  N      16.502455    -13.297855      7.502512
  H      13.453745    -14.682279      4.845952
  H      11.984064    -13.759607      4.504326
  H      12.338309    -14.306625      6.133780
  H      13.592200    -12.022952      4.563427
  H      12.917951    -11.987091      6.192803
  H      15.604809    -12.476278      5.387327
  H      14.711709    -13.882168      9.055747
  H      13.348493    -13.476557      8.015428
  H      16.807385    -13.490827      8.509353
  H      17.210670    -13.032605      6.839292
  C       8.412999    -16.813004     15.233001
  C       9.655238    -17.711468     15.304120
  N      10.796892    -17.081634     15.946441
  C      11.339252    -15.948247     15.388626
  N      11.165451    -15.645661     14.123796
  N      12.076899    -15.139111     16.132982
  H       7.736528    -17.001581     16.066622
  H       7.859526    -16.991234     14.313890
  H       8.701943    -15.762284     15.245328
  H       9.422776    -18.623926     15.858248
  H       9.977292    -18.014175     14.302612
  H      10.743362    -17.077050     16.959253
  H      11.597424    -14.740620     13.712053
  H      10.645078    -16.264455     13.523177
  H      12.528761    -14.268660     15.701758
  H      12.243120    -15.384848     17.096196
  C      13.998001     -9.220000      7.725000
  O      15.302953     -9.612135      8.074852
  C      13.981639     -7.852880      7.036410
  H      13.329681     -9.174595      8.584877
  H      13.656842     -9.992607      7.026180
  H      15.560980     -9.207350      8.912773
  H      14.417954     -7.108231      7.699531
  H      14.573046     -7.881191      6.123951
  H      12.961822     -7.559678      6.794099
  C      14.518001     -6.670000     12.632999
  S      13.364939     -8.007232     13.080753
  H      14.324364     -6.427596     11.588086
  H      15.552805     -7.006518     12.692893
  H      14.356985     -5.800185     13.261876
  H      14.065551     -8.465432     14.120894
  C      20.972000     -6.019000     10.963999
  C      20.365700     -6.912008     12.041403
  C      18.770216     -6.948576     12.032022
  O      18.212937     -6.260401     12.909541
  O      18.248436     -7.690612     11.182383
  H      20.586780     -5.000259     11.007275
  H      20.733387     -6.422305      9.979287
  H      22.061213     -5.984575     11.055333
  H      20.704294     -7.938149     11.881335
  H      20.680386     -6.571437     13.032216
  C      19.312999    -20.521999      7.175001
  C      18.101358    -19.652880      7.392958
  C      16.862888    -20.050523      6.901881
  C      18.172750    -18.442116      8.075918
  C      15.731483    -19.288066      7.104977
  C      17.045223    -17.662611      8.280761
  C      15.806774    -18.090958      7.815511
  O      14.648427    -17.417175      8.021665
  H      19.761228    -20.307815      6.204785
  H      19.041171    -21.575270      7.195147
  H      20.063065    -20.339873      7.941133
  H      16.779959    -20.982225      6.358646
  H      19.122699    -18.100222      8.460794
  H      14.769802    -19.612283      6.736989
  H      17.083667    -16.726198      8.825599
  H      14.750933    -16.627351      8.571753
  C      19.522001    -11.465000      7.842998
  C      18.848439    -10.800588      9.040527
  N      19.102858    -11.561966     10.240085
  C      20.198984    -11.383211     11.019953
  O      21.112018    -10.616269     10.790563
  N      20.204100    -12.235441     12.117541
  H      19.317472    -10.958064      6.899981
  H      19.194612    -12.500904      7.779779
  H      20.601561    -11.475023      7.990178
  H      19.207825     -9.783799      9.209165
  H      17.767781    -10.779303      8.866999
  H      18.530936    -12.379196     10.414515
  H      20.767486    -11.903873     12.883028
  H      19.303545    -12.628694     12.366279
114
Coordinates from ORCA-job 01_xtb_cit_react E -175.252321388460
  C      16.409167    -11.497076     12.734611
  C      15.238509    -11.848595     13.588603
  C      14.069234    -12.206203     13.027942
  C      13.822394    -11.984952     11.621188
  C      14.731234    -11.398558     10.846329
  C      16.016939    -10.850834     11.395856
  C      13.059216    -12.985471     13.797600
  O      13.170175    -13.070387     15.041698
  O      12.195237    -13.593177     13.104707
  O      15.827744     -9.448902     11.492279
  O      17.207326    -12.698760     12.548684
  C      16.519506    -13.842386     12.189352
  C      16.340395    -14.107657     10.714433
  O      17.263416    -13.786186      9.937722
  O      15.267930    -14.654389     10.356663
  C      16.049702    -14.699704     13.096892
  H      17.116360    -10.831057     13.243421
  H      15.419700    -12.017412     14.636357
  H      12.863001    -12.285971     11.231788
  H      14.508497    -11.145421      9.823363
  H      16.842249    -10.999165     10.691828
  H      15.954694     -9.176605     12.404074
  H      15.537637    -15.595429     12.785141
  H      16.119016    -14.533687     14.161468
  O      12.465664    -14.739201     10.449154
  H      13.426811    -14.845786     10.496856
  H      12.236287    -14.324728     11.294078
  C      12.785000    -13.909001      5.224001
  C      13.509600    -12.591486      5.492791
  N      14.858469    -12.778308      5.984671
  C      15.223313    -13.185821      7.219513
  N      14.349544    -13.497946      8.154397
  N      16.509122    -13.295157      7.498301
  H      13.453745    -14.682279      4.845952
  H      11.986759    -13.756208      4.502629
  H      12.338322    -14.304959      6.133986
  H      13.592687    -12.020458      4.566529
  H      12.923270    -11.989147      6.197939
  H      15.606787    -12.486366      5.381691
  H      14.719421    -13.882571      9.054086
  H      13.357018    -13.469694      8.019368
  H      16.817674    -13.491982      8.500820
  H      17.210998    -13.034880      6.830246
  C       8.412999    -16.813004     15.233001
  C       9.663784    -17.693339     15.348031
  N      10.774139    -17.024879     15.998249
  C      11.327876    -15.909489     15.427410
  N      11.160614    -15.640435     14.158476
  N      12.064032    -15.099450     16.161832
  H       7.736528    -17.001581     16.066622
  H       7.873005    -17.030043     14.316325
  H       8.682374    -15.759897     15.223020
  H       9.439110    -18.594597     15.920006
  H      10.005327    -18.014966     14.361339
  H      10.733349    -17.016269     17.006481
  H      11.596638    -14.734542     13.721940
  H      10.627806    -16.253441     13.571629
  H      12.524684    -14.225792     15.703258
  H      12.210982    -15.305597     17.129695
  C      13.998001     -9.220000      7.724999
  O      15.302802     -9.611571      8.074627
  C      13.978105     -7.853891      7.035619
  H      13.329681     -9.174595      8.584877
  H      13.658331     -9.993993      7.027880
  H      15.558779     -9.214667      8.916792
  H      14.377126     -7.103734      7.706840
  H      14.594692     -7.870459      6.143664
  H      12.965958     -7.582512      6.762551
  C      14.518001     -6.670000     12.632999
  S      13.358829     -7.994111     13.088883
  H      14.324364     -6.427596     11.588086
  H      15.549379     -7.012158     12.687269
  H      14.362116     -5.801045     13.263429
  H      14.035741     -8.431318     14.144815
  C      20.972000     -6.019000     10.963999
  C      20.311756     -6.890843     12.023456
  C      18.738446     -6.944491     11.907872
  O      18.143104     -6.196325     12.578987
  O      18.259294     -7.758233     11.179410
  H      20.586780     -5.000259     11.007275
  H      20.763673     -6.420988      9.973802
  H      22.054189     -5.990928     11.100811
  H      20.664716     -7.916305     11.920811
  H      20.553450     -6.517028     13.014335
  C      19.312999    -20.521999      7.175001
  C      18.099046    -19.657460      7.393140
  C      16.862243    -20.059814      6.901848
  C      18.166976    -18.447369      8.075281
  C      15.729656    -19.298231      7.101149
  C      17.038773    -17.669915      8.279194
  C      15.803813    -18.098894      7.807188
  O      14.646072    -17.422077      8.003434
  H      19.761228    -20.307815      6.204785
  H      19.042802    -21.575469      7.196910
  H      20.061976    -20.335203      7.941029
  H      16.782432    -20.993057      6.361148
  H      19.115524    -18.104996      8.463304
  H      14.769105    -19.622411      6.731055
  H      17.080663    -16.733836      8.820786
  H      14.747764    -16.630770      8.551271
  C      19.522001    -11.465000      7.842998
  C      18.840178    -10.806880      9.034378
  N      19.098243    -11.558657     10.237116
  C      20.178679    -11.354026     11.022653
  O      21.073457    -10.569693     10.792027
  N      20.195071    -12.194477     12.126389
  H      19.317472    -10.958064      6.899981
  H      19.202228    -12.503624      7.777385
  H      20.598903    -11.460159      7.997937
  H      19.196979     -9.789672      9.196679
  H      17.760234    -10.788615      8.860449
  H      18.530797    -12.378135     10.412143
  H      20.752361    -11.854420     12.892704
  H      19.315583    -12.610107     12.373015
114
Coordinates from ORCA-job 01_xtb_cit_react E -175.265033494840
  C      16.413032    -11.496429     12.727910
  C      15.245164    -11.850286     13.584033
  C      14.074904    -12.205792     13.022731
  C      13.826128    -11.984132     11.617396
  C      14.733502    -11.397996     10.839290
  C      16.019845    -10.850353     11.390252
  C      13.064494    -12.976158     13.795001
  O      13.170862    -13.050844     15.038575
  O      12.197781    -13.591773     13.110771
  O      15.832503     -9.446539     11.491448
  O      17.207802    -12.697556     12.542653
  C      16.531473    -13.843680     12.186356
  C      16.341429    -14.109217     10.713272
  O      17.262571    -13.786889      9.933526
  O      15.270590    -14.659227     10.354379
  C      16.049736    -14.689634     13.100955
  H      17.116640    -10.829265     13.237985
  H      15.425950    -12.027724     14.628569
  H      12.865470    -12.288626     11.230913
  H      14.511096    -11.146992      9.816946
  H      16.844769    -10.999665     10.687619
  H      15.960796     -9.169819     12.401072
  H      15.525605    -15.581274     12.793538
  H      16.052748    -14.488563     14.163312
  O      12.464885    -14.749694     10.456754
  H      13.426558    -14.852562     10.500425
  H      12.239631    -14.333617     11.301455
  C      12.785000    -13.909001      5.224001
  C      13.511209    -12.589830      5.493697
  N      14.860281    -12.774195      5.985509
  C      15.225593    -13.180662      7.220621
  N      14.351723    -13.498745      8.154057
  N      16.509835    -13.294121      7.497769
  H      13.453745    -14.682279      4.845952
  H      11.988471    -13.754157      4.501559
  H      12.338618    -14.303468      6.134337
  H      13.593362    -12.019072      4.567374
  H      12.925532    -11.989624      6.199676
  H      15.608084    -12.483399      5.382292
  H      14.720986    -13.886486      9.051898
  H      13.359077    -13.470787      8.019301
  H      16.817713    -13.491596      8.498451
  H      17.208348    -13.031699      6.829679
  C       8.412999    -16.813004     15.233001
  C       9.673093    -17.673774     15.377379
  N      10.760239    -16.974932     16.029255
  C      11.318271    -15.868437     15.452077
  N      11.156809    -15.619105     14.182596
  N      12.049318    -15.059038     16.181652
  H       7.736528    -17.001581     16.066623
  H       7.884299    -17.060264     14.319635
  H       8.664340    -15.758802     15.205028
  H       9.458730    -18.566519     15.963403
  H      10.026826    -18.008406     14.401354
  H      10.725862    -16.959628     17.032568
  H      11.600861    -14.712484     13.731739
  H      10.622276    -16.229042     13.601211
  H      12.523358    -14.183806     15.706083
  H      12.190193    -15.246027     17.149904
  C      13.998001     -9.220000      7.724999
  O      15.302589     -9.613491      8.074106
  C      13.976823     -7.853353      7.037491
  H      13.329681     -9.174595      8.584877
  H      13.658199     -9.993295      7.028070
  H      15.560823     -9.214634      8.916595
  H      14.368166     -7.102523      7.711367
  H      14.597843     -7.867541      6.148609
  H      12.965362     -7.586946      6.759315
  C      14.518001     -6.670000     12.632999
  S      13.364647     -7.997054     13.091908
  H      14.324364     -6.427596     11.588086
  H      15.549650     -7.005695     12.686932
  H      14.355210     -5.803447     13.265566
  H      14.036461     -8.428214     14.150266
  C      20.972000     -6.019001     10.963999
  C      20.342163     -6.904629     12.033064
  C      18.759201     -6.944624     11.980813
  O      18.176722     -6.238334     12.829310
  O      18.262191     -7.718171     11.162766
  H      20.586780     -5.000259     11.007275
  H      20.743060     -6.420334      9.978241
  H      22.057291     -5.985017     11.078674
  H      20.692680     -7.928340     11.895318
  H      20.626488     -6.549790     13.025769
  C      19.312999    -20.521999      7.175001
  C      18.097383    -19.660050      7.394555
  C      16.860953    -20.065881      6.905075
  C      18.163457    -18.450097      8.075755
  C      15.727166    -19.305645      7.104101
  C      17.034618    -17.674638      8.280908
  C      15.801011    -18.105292      7.807790
  O      14.643829    -17.426345      8.000980
  H      19.761228    -20.307815      6.204785
  H      19.043312    -21.575456      7.197877
  H      20.061543    -20.332468      7.940807
  H      16.782820    -21.000152      6.366135
  H      19.111761    -18.106549      8.463725
  H      14.766864    -19.630520      6.734470
  H      17.077696    -16.738580      8.819919
  H      14.746728    -16.634767      8.548719
  C      19.522001    -11.465000      7.842998
  C      18.840236    -10.808466      9.030459
  N      19.098784    -11.560001     10.231225
  C      20.179849    -11.357714     11.014330
  O      21.079076    -10.578477     10.777514
  N      20.197476    -12.195214     12.119553
  H      19.317472    -10.958064      6.899981
  H      19.203211    -12.504831      7.775904
  H      20.597497    -11.453320      8.001222
  H      19.199048     -9.790954      9.192575
  H      17.761062    -10.787370      8.857177
  H      18.531025    -12.378790     10.404659
  H      20.755855    -11.856977     12.886114
  H      19.320207    -12.608961     12.367353
114
Coordinates from ORCA-job 01_xtb_cit_react E -175.265144358450
  C      16.410477    -11.465136     12.734099
  C      15.236282    -11.794508     13.598043
  C      14.067882    -12.165400     13.038203
  C      13.827874    -11.970485     11.622838
  C      14.737303    -11.392755     10.840784
  C      16.020826    -10.832716     11.386492
  C      13.055530    -12.941260     13.812473
  O      13.168595    -13.031486     15.058533
  O      12.189802    -13.548809     13.119767
  O      15.826037     -9.429228     11.469787
  O      17.192232    -12.681273     12.553579
  C      16.487045    -13.819478     12.200443
  C      16.324200    -14.094499     10.724556
  O      17.248262    -13.762464      9.951503
  O      15.260183    -14.654169     10.359675
  C      16.081590    -14.692272     13.091011
  H      17.130043    -10.800343     13.232050
  H      15.409408    -11.917715     14.665268
  H      12.870721    -12.280193     11.234482
  H      14.512839    -11.150855      9.815283
  H      16.846958    -10.983372     10.685757
  H      15.956457     -9.149060     12.378360
  H      15.601505    -15.594818     12.772983
  H      16.288547    -14.566652     14.133238
  O      12.462749    -14.739691     10.474753
  H      13.424253    -14.845004     10.515727
  H      12.238056    -14.314114     11.316349
  C      12.785000    -13.909001      5.224001
  C      13.505980    -12.589946      5.490734
  N      14.853362    -12.774734      5.985851
  C      15.214115    -13.189455      7.219438
  N      14.337555    -13.510768      8.148902
  N      16.498896    -13.298445      7.503672
  H      13.453745    -14.682279      4.845952
  H      11.986139    -13.757319      4.502943
  H      12.338810    -14.304310      6.134455
  H      13.590847    -12.022046      4.562554
  H      12.916299    -11.986403      6.192959
  H      15.605130    -12.462093      5.390543
  H      14.706841    -13.897182      9.048745
  H      13.345256    -13.487495      8.008693
  H      16.798748    -13.490795      8.511527
  H      17.205891    -13.020900      6.843725
  C       8.412999    -16.813004     15.233001
  C       9.675343    -17.681207     15.342564
  N      10.779728    -17.003462     15.993966
  C      11.319172    -15.871515     15.427973
  N      11.153492    -15.594670     14.159092
  N      12.043975    -15.054342     16.167079
  H       7.736528    -17.001581     16.066622
  H       7.873365    -17.035825     14.316405
  H       8.673594    -15.758171     15.219288
  H       9.463120    -18.588878     15.911268
  H      10.019757    -17.994042     14.351706
  H      10.735735    -16.997270     17.003557
  H      11.593527    -14.689021     13.729987
  H      10.642399    -16.221374     13.559671
  H      12.512418    -14.185592     15.714652
  H      12.217750    -15.284977     17.135354
  C      13.998001     -9.220000      7.725000
  O      15.299051     -9.625011      8.075929
  C      13.991001     -7.847898      7.045230
  H      13.329681     -9.174595      8.584877
  H      13.654718     -9.987840      7.022356
  H      15.562456     -9.210490      8.909498
  H      14.454510     -7.109602      7.711393
  H      14.567278     -7.885848      6.116613
  H      12.962101     -7.534984      6.825389
  C      14.518001     -6.670000     12.632999
  S      13.373620     -8.010660     13.088621
  H      14.324364     -6.427596     11.588086
  H      15.557168     -6.994292     12.690373
  H      14.347225     -5.802601     13.263556
  H      14.062370     -8.451900     14.136834
  C      20.972000     -6.019000     10.963999
  C      20.361807     -6.906702     12.046497
  C      18.769865     -6.954121     12.025478
  O      18.197766     -6.261641     12.885883
  O      18.261218     -7.694591     11.159921
  H      20.586780     -5.000259     11.007275
  H      20.728666     -6.424127      9.981513
  H      22.060885     -5.984491     11.057785
  H      20.712620     -7.931077     11.900268
  H      20.666069     -6.553441     13.036524
  C      19.312999    -20.521999      7.175001
  C      18.097700    -19.659025      7.396500
  C      16.859310    -20.063830      6.910734
  C      18.165888    -18.449101      8.079625
  C      15.724877    -19.305955      7.116780
  C      17.036255    -17.674668      8.288823
  C      15.799029    -18.107253      7.824000
  O      14.641399    -17.430236      8.026604
  H      19.761228    -20.307815      6.204785
  H      19.043865    -21.575848      7.196584
  H      20.062609    -20.335206      7.940587
  H      16.778979    -20.998017      6.371517
  H      19.116059    -18.103747      8.461820
  H      14.763420    -19.632647      6.750631
  H      17.075468    -16.737279      8.830083
  H      14.747696    -16.641398      8.577813
  C      19.522001    -11.465000      7.842998
  C      18.847022    -10.800492      9.034831
  N      19.098160    -11.557722     10.236698
  C      20.199088    -11.385706     11.013734
  O      21.118051    -10.623365     10.780537
  N      20.203342    -12.237568     12.112967
  H      19.317472    -10.958064      6.899981
  H      19.194287    -12.501799      7.778234
  H      20.601109    -11.467965      7.994621
  H      19.211872     -9.784632      9.197276
  H      17.766601    -10.773565      8.862105
  H      18.523102    -12.373837     10.408424
  H      20.764928    -11.907936     12.880962
  H      19.292366    -12.618798     12.364674
114
Coordinates from ORCA-job 01_xtb_cit_react E -175.267474325630
  C      16.409659    -11.453299     12.730225
  C      15.236882    -11.778001     13.597147
  C      14.069660    -12.152575     13.037553
  C      13.829228    -11.966018     11.621494
  C      14.737602    -11.392639     10.834826
  C      16.018907    -10.827840     11.380551
  C      13.052896    -12.912774     13.818917
  O      13.157283    -12.983135     15.065924
  O      12.186924    -13.529049     13.134217
  O      15.821262     -9.423541     11.457085
  O      17.188534    -12.671230     12.558172
  C      16.486620    -13.809380     12.203738
  C      16.323782    -14.086554     10.728087
  O      17.247452    -13.751081      9.955539
  O      15.264588    -14.654950     10.360976
  C      16.009286    -14.657399     13.109100
  H      17.127468    -10.785875     13.225093
  H      15.411815    -11.911717     14.657676
  H      12.872126    -12.281204     11.236489
  H      14.514141    -11.156243      9.807962
  H      16.847114    -10.978670     10.681896
  H      15.952041     -9.133359     12.362531
  H      15.500944    -15.550689     12.794158
  H      16.106135    -14.486098     14.164934
  O      12.463355    -14.751974     10.496830
  H      13.426078    -14.851066     10.530575
  H      12.243168    -14.320133     11.336079
  C      12.785000    -13.909001      5.224001
  C      13.506529    -12.588867      5.491186
  N      14.853756    -12.771434      5.988478
  C      15.214003    -13.187100      7.221925
  N      14.336774    -13.516391      8.148472
  N      16.498056    -13.298225      7.506666
  H      13.453745    -14.682279      4.845952
  H      11.987173    -13.756192      4.502158
  H      12.338502    -14.303662      6.134385
  H      13.592331    -12.022417      4.562266
  H      12.915273    -11.985535      6.191788
  H      15.605143    -12.456316      5.395834
  H      14.706460    -13.905207      9.046491
  H      13.344574    -13.496143      8.006761
  H      16.795348    -13.488328      8.515096
  H      17.203844    -13.012743      6.850460
  C       8.412999    -16.813004     15.233001
  C       9.691093    -17.648351     15.381485
  N      10.760769    -16.931834     16.043050
  C      11.296983    -15.804959     15.468963
  N      11.143470    -15.553881     14.196561
  N      12.002017    -14.970405     16.204596
  H       7.736528    -17.001581     16.066623
  H       7.888870    -17.074696     14.319615
  H       8.647807    -15.754049     15.195749
  H       9.490409    -18.550735     15.960919
  H      10.061624    -17.968265     14.403934
  H      10.707287    -16.912378     17.050890
  H      11.590575    -14.652828     13.752814
  H      10.638899    -16.188065     13.602651
  H      12.487882    -14.112857     15.734422
  H      12.160995    -15.175226     17.174395
  C      13.998001     -9.220000      7.725000
  O      15.296745     -9.632471      8.077669
  C      13.995380     -7.845702      7.050660
  H      13.329681     -9.174595      8.584877
  H      13.653337     -9.984549      7.020137
  H      15.563690     -9.210190      8.907121
  H      14.402915     -7.107215      7.730831
  H      14.611181     -7.860370      6.159263
  H      12.986313     -7.558545      6.779710
  C      14.518001     -6.670000     12.632999
  S      13.378691     -8.013479     13.090554
  H      14.324364     -6.427596     11.588086
  H      15.557415     -6.987331     12.689689
  H      14.342155     -5.804272     13.264511
  H      14.070705     -8.457800     14.135335
  C      20.972000     -6.019001     10.963999
  C      20.352052     -6.892499     12.050084
  C      18.766908     -6.932476     12.011550
  O      18.190082     -6.249759     12.874824
  O      18.264551     -7.666359     11.145035
  H      20.586780     -5.000259     11.007275
  H      20.729279     -6.428044      9.983599
  H      22.059533     -5.986666     11.064071
  H      20.698969     -7.920597     11.920265
  H      20.646616     -6.527840     13.037193
  C      19.312999    -20.521999      7.175001
  C      18.097193    -19.661307      7.398917
  C      16.858102    -20.069166      6.917628
  C      18.165917    -18.451126      8.080661
  C      15.723059    -19.312847      7.126177
  C      17.035935    -17.679151      8.293677
  C      15.798392    -18.113615      7.831760
  O      14.641409    -17.436136      8.037523
  H      19.761228    -20.307815      6.204785
  H      19.044371    -21.575928      7.196791
  H      20.062731    -20.334163      7.940244
  H      16.778318    -21.003316      6.378351
  H      19.116849    -18.104355      8.459888
  H      14.760815    -19.641099      6.763566
  H      17.075506    -16.741671      8.833008
  H      14.751157    -16.648599      8.590023
  C      19.522001    -11.465000      7.842998
  C      18.849346    -10.797591      9.033253
  N      19.097667    -11.550651     10.237321
  C      20.198913    -11.379810     11.010460
  O      21.115668    -10.617793     10.773398
  N      20.206415    -12.229171     12.111327
  H      19.317472    -10.958064      6.899981
  H      19.192012    -12.501487      7.778372
  H      20.600583    -11.467252      7.995006
  H      19.219378     -9.782966      9.192161
  H      17.769183    -10.766397      8.861751
  H      18.521244    -12.365668     10.408320
  H      20.764232    -11.893543     12.879847
  H      19.297086    -12.602286     12.366775
114
Coordinates from ORCA-job 01_xtb_cit_react E -175.268338670130
  C      16.404170    -11.440014     12.720539
  C      15.234160    -11.760436     13.589922
  C      14.067774    -12.137063     13.031909
  C      13.827014    -11.961615     11.616378
  C      14.734183    -11.395587     10.823421
  C      16.012095    -10.824265     11.368503
  C      13.048268    -12.881336     13.819303
  O      13.148353    -12.936150     15.066542
  O      12.179939    -13.505184     13.143266
  O      15.811383     -9.419635     11.434572
  O      17.179049    -12.658920     12.555914
  C      16.483307    -13.797657     12.203572
  C      16.321315    -14.079161     10.729859
  O      17.243100    -13.734984      9.958427
  O      15.270051    -14.659676     10.358735
  C      15.985389    -14.631879     13.112830
  H      17.119929    -10.770386     13.211777
  H      15.410385    -11.904452     14.641973
  H      12.870566    -12.284070     11.236236
  H      14.513313    -11.169097      9.794043
  H      16.843835    -10.975056     10.673654
  H      15.943317     -9.114240     12.335004
  H      15.470059    -15.521927     12.797589
  H      16.025394    -14.427764     14.168942
  O      12.461770    -14.770846     10.525515
  H      13.425974    -14.861615     10.548381
  H      12.247526    -14.329901     11.360431
  C      12.785000    -13.909001      5.224001
  C      13.506054    -12.586933      5.490844
  N      14.853249    -12.765521      5.990388
  C      15.213241    -13.184491      7.222698
  N      14.335276    -13.526632      8.144344
  N      16.496487    -13.298493      7.508545
  H      13.453745    -14.682279      4.845952
  H      11.988154    -13.755388      4.501387
  H      12.338439    -14.302744      6.134510
  H      13.592202    -12.022783      4.560790
  H      12.912249    -11.984012      6.189203
  H      15.603039    -12.449562      5.400805
  H      14.705538    -13.920358      9.039169
  H      13.343638    -13.509728      8.000715
  H      16.789030    -13.485502      8.518383
  H      17.200768    -12.998290      6.859503
  C       8.412999    -16.813004     15.233001
  C       9.708082    -17.614194     15.418057
  N      10.744610    -16.859204     16.087328
  C      11.278699    -15.739966     15.502696
  N      11.128921    -15.510095     14.226969
  N      11.961505    -14.886435     16.234025
  H       7.736528    -17.001581     16.066623
  H       7.903977    -17.114658     14.323458
  H       8.621321    -15.750373     15.171209
  H       9.521035    -18.511686     16.008264
  H      10.101744    -17.940432     14.452529
  H      10.689968    -16.831700     17.092292
  H      11.584605    -14.611429     13.768319
  H      10.622821    -16.143430     13.642169
  H      12.465775    -14.039636     15.745828
  H      12.108943    -15.065882     17.206071
  C      13.998001     -9.220000      7.725000
  O      15.291584     -9.647850      8.079999
  C      14.009453     -7.841332      7.060559
  H      13.329681     -9.174595      8.584877
  H      13.650797     -9.977869      7.014922
  H      15.564589     -9.213880      8.901659
  H      14.471454     -7.114195      7.737285
  H      14.592227     -7.875146      6.136210
  H      12.986270     -7.519630      6.835083
  C      14.518001     -6.670000     12.632999
  S      13.384528     -8.015711     13.092925
  H      14.324364     -6.427596     11.588086
  H      15.558303     -6.978217     12.689753
  H      14.335551     -5.806392     13.265183
  H      14.068779     -8.448864     14.141551
  C      20.972000     -6.019001     10.963999
  C      20.337921     -6.876050     12.052843
  C      18.759790     -6.907424     11.986875
  O      18.172424     -6.245087     12.861014
  O      18.267401     -7.629234     11.116036
  H      20.586780     -5.000259     11.007275
  H      20.731183     -6.432034      9.986061
  H      22.057618     -5.989919     11.073036
  H      20.681704     -7.907472     11.944331
  H      20.618759     -6.497596     13.037509
  C      19.312999    -20.521999      7.175001
  C      18.095511    -19.665433      7.401193
  C      16.855784    -20.078236      6.925982
  C      18.164116    -18.454484      8.080500
  C      15.719438    -19.324545      7.137500
  C      17.033121    -17.686701      8.298607
  C      15.795629    -18.124107      7.840185
  O      14.639797    -17.445680      8.049655
  H      19.761228    -20.307815      6.204785
  H      19.046349    -21.576397      7.197451
  H      20.062528    -20.331641      7.939845
  H      16.776983    -21.013346      6.388419
  H      19.115487    -18.105403      8.456178
  H      14.756811    -19.654957      6.778507
  H      17.073056    -16.749027      8.835210
  H      14.755567    -16.660769      8.604697
  C      19.522001    -11.465000      7.842998
  C      18.850313    -10.793568      9.029883
  N      19.093071    -11.540299     10.237706
  C      20.193255    -11.370992     11.005760
  O      21.107011    -10.610010     10.763162
  N      20.205528    -12.218360     12.107851
  H      19.317472    -10.958064      6.899981
  H      19.189552    -12.500581      7.778341
  H      20.599357    -11.466111      7.996438
  H      19.226515     -9.780668      9.183646
  H      17.770792    -10.756514      8.859319
  H      18.514312    -12.353942     10.406266
  H      20.756981    -11.873918     12.877633
  H      19.301412    -12.580134     12.366046
114
Coordinates from ORCA-job 01_xtb_cit_react E -175.269974342820
  C      16.393486    -11.406450     12.708059
  C      15.223104    -11.708575     13.582619
  C      14.057968    -12.092636     13.027577
  C      13.823062    -11.946283     11.608667
  C      14.730515    -11.394515     10.806873
  C      16.002454    -10.809761     11.348793
  C      13.034508    -12.819154     13.821992
  O      13.131586    -12.860121     15.070390
  O      12.164135    -13.450420     13.153207
  O      15.793795     -9.405768     11.392607
  O      17.155278    -12.634522     12.556609
  C      16.452714    -13.769160     12.207509
  C      16.307244    -14.061132     10.734905
  O      17.228462    -13.701573      9.968763
  O      15.271367    -14.662505     10.354933
  C      15.940280    -14.591189     13.115162
  H      17.114089    -10.736179     13.189530
  H      15.393581    -11.830269     14.638121
  H      12.869759    -12.281092     11.233075
  H      14.514183    -11.187129      9.772819
  H      16.839342    -10.961730     10.661048
  H      15.928823     -9.077699     12.285199
  H      15.423671    -15.479102     12.797216
  H      15.982096    -14.373990     14.168531
  O      12.459071    -14.789912     10.570872
  H      13.424613    -14.870303     10.577098
  H      12.252748    -14.331345     11.397400
  C      12.785000    -13.909001      5.224001
  C      13.503405    -12.584517      5.489121
  N      14.850128    -12.757252      5.991800
  C      15.208277    -13.184656      7.221389
  N      14.328229    -13.545918      8.134218
  N      16.490892    -13.300757      7.511930
  H      13.453745    -14.682279      4.845952
  H      11.988550    -13.755533      4.500895
  H      12.338325    -14.301962      6.134632
  H      13.589936    -12.023864      4.557262
  H      12.905392    -11.981763      6.183957
  H      15.599001    -12.429656      5.409510
  H      14.699334    -13.945896      9.025240
  H      13.337689    -13.534442      7.986073
  H      16.772824    -13.480402      8.527174
  H      17.195985    -12.973427      6.877597
  C       8.412999    -16.813004     15.233001
  C       9.732726    -17.566607     15.454066
  N      10.728931    -16.765925     16.131925
  C      11.247614    -15.645294     15.536159
  N      11.103742    -15.436160     14.254961
  N      11.901583    -14.766173     16.262394
  H       7.736528    -17.001581     16.066623
  H       7.922180    -17.161051     14.328487
  H       8.587084    -15.746083     15.141807
  H       9.566943    -18.462741     16.052992
  H      10.154191    -17.891962     14.499364
  H      10.668084    -16.730446     17.135357
  H      11.569631    -14.541320     13.783720
  H      10.615251    -16.084241     13.673070
  H      12.428013    -13.936499     15.759802
  H      12.057461    -14.935718     17.237344
  C      13.998001     -9.220000      7.725000
  O      15.282456     -9.670833      8.087171
  C      14.031241     -7.835215      7.076556
  H      13.329681     -9.174595      8.584877
  H      13.645332     -9.966494      7.006249
  H      15.565788     -9.214479      8.892781
  H      14.424705     -7.115380      7.778527
  H      14.669462     -7.839360      6.202963
  H      13.036636     -7.533972      6.783653
  C      14.518001     -6.670000     12.632999
  S      13.396850     -8.024799     13.093597
  H      14.324364     -6.427596     11.588086
  H      15.562962     -6.961316     12.692244
  H      14.322603     -5.809175     13.265180
  H      14.090370     -8.459694     14.136566
  C      20.972000     -6.019001     10.963999
  C      20.330811     -6.860243     12.061720
  C      18.755294     -6.885756     11.975856
  O      18.157879     -6.258559     12.868532
  O      18.269825     -7.570470     11.073244
  H      20.586780     -5.000259     11.007275
  H      20.726997     -6.437945      9.990654
  H      22.057118     -5.993003     11.073849
  H      20.672362     -7.894738     11.973428
  H      20.605057     -6.467698     13.043714
  C      19.312999    -20.521999      7.175001
  C      18.092859    -19.670504      7.406057
  C      16.851519    -20.089195      6.940332
  C      18.161524    -18.458751      8.083991
  C      15.713045    -19.340135      7.159051
  C      17.028616    -17.696844      8.310468
  C      15.790048    -18.138985      7.859877
  O      14.636282    -17.458651      8.076297
  H      19.761228    -20.307815      6.204785
  H      19.049476    -21.577280      7.197564
  H      20.062935    -20.329687      7.939079
  H      16.773199    -21.025333      6.404574
  H      19.114044    -18.105587      8.452432
  H      14.749569    -19.674403      6.806488
  H      17.067234    -16.757729      8.843963
  H      14.762556    -16.678515      8.635984
  C      19.522001    -11.465000      7.842998
  C      18.854499    -10.783516      9.027447
  N      19.085184    -11.525071     10.240765
  C      20.191373    -11.373156     11.001113
  O      21.112395    -10.623288     10.753620
  N      20.201210    -12.226328     12.101651
  H      19.317472    -10.958064      6.899981
  H      19.182861    -12.497781      7.779022
  H      20.598992    -11.470816      7.995577
  H      19.242612     -9.774046      9.175526
  H      17.775318    -10.734239      8.857984
  H      18.499261    -12.335203     10.403941
  H      20.747626    -11.876624     12.873468
  H      19.290190    -12.558782     12.363020
114
Coordinates from ORCA-job 01_xtb_cit_react E -175.262583297680
  C      16.318925    -11.187120     12.639583
  C      15.122443    -11.344167     13.535875
  C      13.963896    -11.781162     12.988949
  C      13.794339    -11.825228     11.544530
  C      14.720366    -11.359532     10.712351
  C      15.956972    -10.701810     11.230705
  C      12.906859    -12.429962     13.805045
  O      12.958101    -12.389499     15.058351
  O      12.046294    -13.100614     13.151995
  O      15.689606     -9.310579     11.145240
  O      16.983072    -12.492349     12.580309
  C      16.186362    -13.582349     12.228186
  C      16.190096    -13.939915     10.754794
  O      17.121989    -13.508695     10.028633
  O      15.248474    -14.651075     10.320894
  C      15.405831    -14.273275     13.126165
  H      17.089902    -10.527957     13.062471
  H      15.238689    -11.246197     14.632260
  H      12.866437    -12.224223     11.173591
  H      14.542955    -11.264908      9.657510
  H      16.812707    -10.870343     10.585955
  H      15.840783     -8.871870     11.998552
  H      14.815758    -15.123111     12.794482
  H      15.465188    -14.021389     14.173428
  O      12.454835    -14.831088     10.785910
  H      13.420375    -14.866721     10.706438
  H      12.278247    -14.266412     11.554638
  C      12.785000    -13.909001      5.224001
  C      13.488574    -12.575320      5.471981
  N      14.833264    -12.717535      5.983580
  C      15.179523    -13.197298      7.193946
  N      14.285593    -13.650560      8.057760
  N      16.465050    -13.319680      7.515686
  H      13.453745    -14.682279      4.845952
  H      11.985076    -13.762082      4.502518
  H      12.340425    -14.298720      6.136814
  H      13.572767    -12.032402      4.529892
  H      12.872704    -11.974655      6.153185
  H      15.580441    -12.287673      5.447758
  H      14.673281    -14.066461      8.936505
  H      13.299081    -13.664875      7.884969
  H      16.679623    -13.449858      8.569829
  H      17.176131    -12.849806      6.974200
  C       8.412999    -16.813004     15.233001
  C       9.847628    -17.264940     15.609461
  N      10.607896    -16.235259     16.301376
  C      11.003441    -15.087895     15.638684
  N      10.934759    -15.006137     14.328088
  N      11.489714    -14.059344     16.327505
  H       7.736528    -17.001581     16.066622
  H       8.044403    -17.393335     14.378894
  H       8.395504    -15.749988     14.978457
  H       9.809711    -18.150367     16.253053
  H      10.407992    -17.549418     14.707953
  H      10.456327    -16.134445     17.304576
  H      11.440460    -14.140941     13.810289
  H      10.645301    -15.811328     13.756927
  H      12.121997    -13.337748     15.785933
  H      11.708541    -14.205218     17.310094
  C      13.998001     -9.220000      7.725000
  O      15.242603     -9.759522      8.138449
  C      14.149814     -7.809720      7.157291
  H      13.329681     -9.174595      8.584877
  H      13.608933     -9.904715      6.963436
  H      15.577538     -9.186554      8.840351
  H      14.562839     -7.154517      7.921052
  H      14.826872     -7.806930      6.307185
  H      13.181809     -7.424041      6.845108
  C      14.518001     -6.670000     12.632998
  S      13.478893     -8.096264     13.080005
  H      14.324364     -6.427596     11.588086
  H      15.595456     -6.875491     12.717746
  H      14.248097     -5.825993     13.265311
  H      14.235878     -8.522061     14.093316
  C      20.972000     -6.019000     10.963999
  C      20.324360     -6.841174     12.092998
  C      18.735519     -6.876334     11.951291
  O      18.105364     -6.437995     12.920255
  O      18.257702     -7.276130     10.833676
  H      20.586780     -5.000259     11.007275
  H      20.709065     -6.454608     10.004349
  H      22.059938     -5.999823     11.060558
  H      20.676503     -7.874859     12.063270
  H      20.581831     -6.413520     13.075205
  C      19.312999    -20.521999      7.175001
  C      18.079981    -19.688979      7.439706
  C      16.828345    -20.127250      7.018684
  C      18.148505    -18.475443      8.122256
  C      15.680267    -19.399621      7.278817
  C      17.005342    -17.737732      8.389245
  C      15.759898    -18.199379      7.980947
  O      14.621844    -17.497227      8.225569
  H      19.761228    -20.307815      6.204785
  H      19.062379    -21.581322      7.192996
  H      20.068401    -20.329939      7.934590
  H      16.748872    -21.062845      6.481816
  H      19.107426    -18.100641      8.450466
  H      14.711904    -19.754147      6.960661
  H      17.030338    -16.787499      8.910216
  H      14.805912    -16.741786      8.807882
  C      19.522001    -11.465000      7.842998
  C      18.873872    -10.726265      9.017614
  N      19.032023    -11.458930     10.254463
  C      20.184195    -11.452297     10.986040
  O      21.182819    -10.795768     10.738010
  N      20.125483    -12.363832     12.069449
  H      19.317472    -10.958064      6.899981
  H      19.145500    -12.480167      7.784020
  H      20.600345    -11.506790      7.988798
  H      19.315006     -9.730635      9.156484
  H      17.796446    -10.608226      8.846527
  H      18.397613    -12.242338     10.382823
  H      20.671452    -12.023936     12.849819
  H      19.132929    -12.515540     12.334198
114
Coordinates from ORCA-job 01_xtb_cit_react E -175.272088121400
  C      16.308603    -11.217452     12.637941
  C      15.113710    -11.392335     13.523448
  C      13.959084    -11.828037     12.973204
  C      13.782874    -11.851005     11.533667
  C      14.710824    -11.378424     10.705516
  C      15.949654    -10.721944     11.231857
  C      12.907435    -12.482142     13.787759
  O      12.972915    -12.453310     15.038992
  O      12.043126    -13.145592     13.134659
  O      15.690613     -9.328698     11.153727
  O      16.990636    -12.508196     12.568479
  C      16.220728    -13.607145     12.222893
  C      16.202277    -13.963267     10.755958
  O      17.126181    -13.530183     10.025621
  O      15.255859    -14.669213     10.325600
  C      15.544627    -14.337156     13.125250
  H      17.068027    -10.555803     13.071408
  H      15.238648    -11.350833     14.604584
  H      12.851090    -12.245991     11.164390
  H      14.536312    -11.278586      9.648793
  H      16.810714    -10.890346     10.584977
  H      15.841219     -8.894228     12.003625
  H      14.990878    -15.203246     12.805480
  H      15.624367    -14.097945     14.170658
  O      12.453131    -14.853418     10.776186
  H      13.418653    -14.886836     10.700560
  H      12.272409    -14.293734     11.545427
  C      12.785000    -13.909001      5.224001
  C      13.490977    -12.576859      5.478192
  N      14.835208    -12.722762      5.993115
  C      15.181606    -13.204954      7.203505
  N      14.292049    -13.657895      8.069274
  N      16.464233    -13.324340      7.520569
  H      13.453745    -14.682279      4.845952
  H      11.988184    -13.759345      4.499877
  H      12.336064    -14.301095      6.133556
  H      13.578687    -12.030816      4.537725
  H      12.875594    -11.974753      6.159000
  H      15.582251    -12.302306      5.455840
  H      14.679001    -14.075758      8.945858
  H      13.305325    -13.667720      7.901458
  H      16.685412    -13.455709      8.568460
  H      17.170659    -12.856038      6.974639
  C       8.412999    -16.813004     15.233001
  C       9.830248    -17.308814     15.586445
  N      10.625158    -16.305791     16.271127
  C      11.042649    -15.172207     15.613614
  N      10.944537    -15.065975     14.307979
  N      11.535784    -14.153403     16.307477
  H       7.736528    -17.001581     16.066622
  H       8.027834    -17.361160     14.369650
  H       8.422820    -15.748333     15.001851
  H       9.776255    -18.191618     16.229447
  H      10.368738    -17.605871     14.678484
  H      10.495287    -16.214673     17.272476
  H      11.439546    -14.193675     13.794152
  H      10.605981    -15.833343     13.739657
  H      12.151681    -13.415420     15.768132
  H      11.732561    -14.285363     17.289958
  C      13.998001     -9.220000      7.724999
  O      15.240724     -9.761585      8.133258
  C      14.150226     -7.810302      7.156555
  H      13.329681     -9.174595      8.584877
  H      13.609972     -9.904644      6.965144
  H      15.575935     -9.196545      8.845329
  H      14.563729     -7.153929      7.919421
  H      14.826649     -7.810101      6.305655
  H      13.182197     -7.424757      6.843972
  C      14.518001     -6.670000     12.632999
  S      13.471437     -8.089112     13.081681
  H      14.324364     -6.427596     11.588086
  H      15.589401     -6.883388     12.717516
  H      14.255819     -5.824357     13.264725
  H      14.222327     -8.518357     14.098395
  C      20.972000     -6.019000     10.963999
  C      20.303960     -6.838098     12.074671
  C      18.721883     -6.867885     11.921477
  O      18.075087     -6.438855     12.895259
  O      18.264833     -7.306877     10.838913
  H      20.586780     -5.000259     11.007275
  H      20.720507     -6.448726      9.998678
  H      22.057191     -6.003174     11.078126
  H      20.655547     -7.871388     12.044175
  H      20.545985     -6.415999     13.056881
  C      19.312999    -20.521999      7.175001
  C      18.082778    -19.690359      7.433570
  C      16.832929    -20.130179      7.011053
  C      18.152405    -18.477515      8.113439
  C      15.685557    -19.403148      7.268519
  C      17.010766    -17.741616      8.379913
  C      15.765507    -18.202777      7.969221
  O      14.626100    -17.505112      8.217486
  H      19.761228    -20.307815      6.204785
  H      19.062592    -21.581154      7.195560
  H      20.066559    -20.327011      7.935404
  H      16.754189    -21.067364      6.476996
  H      19.110587    -18.104782      8.445770
  H      14.718200    -19.756021      6.945969
  H      17.035632    -16.794758      8.902521
  H      14.809600    -16.751990      8.801394
  C      19.522001    -11.465000      7.842998
  C      18.872803    -10.734323      9.012856
  N      19.034058    -11.466102     10.248506
  C      20.180417    -11.446062     10.977430
  O      21.167754    -10.778891     10.728245
  N      20.122192    -12.333573     12.071883
  H      19.317472    -10.958064      6.899981
  H      19.147940    -12.483996      7.785423
  H      20.599229    -11.502111      7.991689
  H      19.312505     -9.741741      9.147111
  H      17.796876    -10.619210      8.840416
  H      18.403022    -12.252179     10.379608
  H      20.669566    -11.986873     12.847876
  H      19.144320    -12.506794     12.338696
114
Coordinates from ORCA-job 01_xtb_cit_react E -175.272758801520
  C      16.304954    -11.258781     12.637753
  C      15.114239    -11.461351     13.513148
  C      13.958570    -11.887902     12.962194
  C      13.775264    -11.881878     11.528928
  C      14.703055    -11.398810     10.706727
  C      15.945421    -10.748441     11.237173
  C      12.912523    -12.556837     13.772208
  O      12.998065    -12.562149     15.018638
  O      12.039679    -13.203520     13.117226
  O      15.694910     -9.353524     11.169995
  O      17.005753    -12.533000     12.557595
  C      16.256925    -13.639518     12.208017
  C      16.217366    -13.985834     10.743521
  O      17.137713    -13.558278     10.008458
  O      15.261501    -14.679916     10.321076
  C      15.629484    -14.387689     13.103604
  H      17.052204    -10.594864     13.084158
  H      15.245282    -11.447206     14.586554
  H      12.839778    -12.266954     11.159533
  H      14.529922    -11.290074      9.650844
  H      16.807707    -10.914640     10.588780
  H      15.844695     -8.926921     12.020220
  H      15.093304    -15.261637     12.783278
  H      15.693436    -14.153533     14.151052
  O      12.449295    -14.863950     10.748519
  H      13.414952    -14.898293     10.679594
  H      12.262962    -14.316833     11.521909
  C      12.785000    -13.909001      5.224001
  C      13.492099    -12.577553      5.481125
  N      14.837379    -12.724838      5.993561
  C      15.187514    -13.203571      7.204265
  N      14.301700    -13.651175      8.073812
  N      16.470148    -13.321539      7.514625
  H      13.453745    -14.682279      4.845952
  H      11.989070    -13.758571      4.499109
  H      12.334987    -14.301966      6.132611
  H      13.578020    -12.027862      4.542809
  H      12.879896    -11.976720      6.165524
  H      15.581252    -12.326232      5.448188
  H      14.687589    -14.071561      8.949784
  H      13.314258    -13.654610      7.911402
  H      16.701976    -13.457544      8.556003
  H      17.170788    -12.863814      6.959277
  C       8.412999    -16.813004     15.233001
  C       9.790006    -17.367230     15.525925
  N      10.631042    -16.424914     16.193638
  C      11.058044    -15.285113     15.557479
  N      10.930715    -15.132407     14.267424
  N      11.601060    -14.317676     16.248325
  H       7.736528    -17.001581     16.066623
  H       8.005182    -17.290498     14.368760
  H       8.472092    -15.763182     15.044269
  H       9.715020    -18.254231     16.153646
  H      10.284452    -17.653291     14.600389
  H      10.536734    -16.374851     17.190692
  H      11.427422    -14.256370     13.769651
  H      10.561440    -15.865201     13.699127
  H      12.200081    -13.555739     15.728188
  H      11.816062    -14.480449     17.224094
  C      13.998001     -9.220000      7.724999
  O      15.241957     -9.757224      8.126486
  C      14.142775     -7.813800      7.148407
  H      13.329681     -9.174595      8.584877
  H      13.612252     -9.909326      6.969371
  H      15.572476     -9.210340      8.850658
  H      14.555823     -7.150948      7.906726
  H      14.817919     -7.817993      6.294273
  H      13.171189     -7.434315      6.836409
  C      14.518001     -6.670000     12.632998
  S      13.463451     -8.081967     13.081481
  H      14.324364     -6.427596     11.588087
  H      15.583202     -6.895123     12.716305
  H      14.264640     -5.823109     13.264910
  H      14.192863     -8.498319     14.111652
  C      20.972000     -6.019000     10.963999
  C      20.287121     -6.845508     12.055792
  C      18.708187     -6.879714     11.884085
  O      18.053386     -6.423493     12.821896
  O      18.264407     -7.357122     10.842120
  H      20.586780     -5.000259     11.007275
  H      20.737018     -6.440593      9.990990
  H      22.054999     -6.003659     11.096573
  H      20.641749     -7.877613     12.020253
  H      20.513181     -6.431463     13.044583
  C      19.312999    -20.521999      7.175001
  C      18.084512    -19.688452      7.426896
  C      16.837181    -20.125966      6.996614
  C      18.153996    -18.475009      8.104343
  C      15.691366    -19.395493      7.245312
  C      17.013714    -17.736524      8.364451
  C      15.770420    -18.194701      7.945070
  O      14.629549    -17.499521      8.188767
  H      19.761228    -20.307815      6.204785
  H      19.061523    -21.580813      7.196458
  H      20.065398    -20.326004      7.936298
  H      16.759586    -21.063141      6.462359
  H      19.110859    -18.104544      8.442276
  H      14.725555    -19.745584      6.916203
  H      17.040375    -16.791535      8.889484
  H      14.808536    -16.746543      8.772384
  C      19.522001    -11.465000      7.842998
  C      18.868592    -10.742796      9.012510
  N      19.037560    -11.474421     10.245439
  C      20.172572    -11.432007     10.979552
  O      21.150204    -10.756112     10.726975
  N      20.119459    -12.301315     12.081232
  H      19.317472    -10.958064      6.899981
  H      19.154990    -12.486711      7.783073
  H      20.598745    -11.495815      7.993861
  H      19.302093     -9.749244      9.149006
  H      17.793963    -10.635180      8.836956
  H      18.413189    -12.263886     10.378375
  H      20.668703    -11.950606     12.853308
  H      19.164914    -12.505987     12.346311
114
Coordinates from ORCA-job 01_xtb_cit_react E -175.270213932200
  C      16.322378    -11.274118     12.641345
  C      15.140296    -11.490300     13.516386
  C      13.987639    -11.914276     12.968610
  C      13.786600    -11.899442     11.535874
  C      14.709964    -11.413155     10.707425
  C      15.956977    -10.759680     11.241022
  C      12.935895    -12.549547     13.805887
  O      13.021285    -12.511557     15.055314
  O      12.061731    -13.208129     13.170343
  O      15.713330     -9.359261     11.179267
  O      17.048027    -12.529399     12.560239
  C      16.338609    -13.648464     12.219872
  C      16.254906    -13.998034     10.763805
  O      17.163937    -13.577952     10.016099
  O      15.284889    -14.689631     10.360865
  C      15.769562    -14.400884     13.124036
  H      17.054609    -10.598594     13.091489
  H      15.289276    -11.537369     14.567046
  H      12.842951    -12.284614     11.177412
  H      14.528697    -11.297376      9.651877
  H      16.822362    -10.927854     10.589971
  H      15.863601     -8.938290     12.025877
  H      15.250100    -15.280322     12.808919
  H      15.686478    -14.130734     14.170403
  O      12.462422    -14.890705     10.793286
  H      13.431672    -14.915693     10.722140
  H      12.279410    -14.343494     11.571266
  C      12.785000    -13.909001      5.224001
  C      13.498207    -12.582359      5.498965
  N      14.840123    -12.738704      6.024333
  C      15.189477    -13.213172      7.239101
  N      14.310644    -13.654801      8.115884
  N      16.468450    -13.324849      7.539154
  H      13.453745    -14.682279      4.845952
  H      11.997032    -13.749759      4.492555
  H      12.324737    -14.306881      6.125176
  H      13.597342    -12.027602      4.564558
  H      12.884422    -11.977941      6.178651
  H      15.584543    -12.364225      5.477864
  H      14.694495    -14.077181      8.991492
  H      13.322107    -13.655639      7.960454
  H      16.719037    -13.459484      8.568792
  H      17.159748    -12.876844      6.967437
  C       8.412999    -16.813004     15.233001
  C       9.831856    -17.342456     15.603960
  N      10.648720    -16.345485     16.300722
  C      11.088508    -15.223481     15.661097
  N      10.964568    -15.099669     14.369436
  N      11.624176    -14.239936     16.357033
  H       7.736528    -17.001581     16.066622
  H       8.012610    -17.358899     14.356637
  H       8.427166    -15.731675     15.007214
  H       9.761997    -18.221853     16.250890
  H      10.372684    -17.665942     14.701638
  H      10.535515    -16.265233     17.296825
  H      11.452845    -14.238863     13.852672
  H      10.570935    -15.821089     13.811485
  H      12.223966    -13.485219     15.801371
  H      11.800750    -14.355309     17.333433
  C      13.998001     -9.220000      7.724999
  O      15.240683     -9.757262      8.115350
  C      14.132114     -7.817750      7.135051
  H      13.329681     -9.174595      8.584877
  H      13.616723     -9.917131      6.977368
  H      15.571467     -9.222346      8.856389
  H      14.537118     -7.146705      7.882168
  H      14.804588     -7.824859      6.281197
  H      13.162609     -7.452138      6.818407
  C      14.518001     -6.670000     12.632999
  S      13.470565     -8.091337     13.080046
  H      14.324364     -6.427596     11.588086
  H      15.577640     -6.893352     12.711620
  H      14.263288     -5.824072     13.267753
  H      14.181854     -8.505284     14.113666
  C      20.972000     -6.019001     10.963999
  C      20.255298     -6.836171     12.028580
  C      18.693107     -6.856807     11.844229
  O      18.030971     -6.426841     12.842059
  O      18.267708     -7.364931     10.818857
  H      20.586780     -5.000259     11.007275
  H      20.759100     -6.431724      9.982206
  H      22.048774     -6.007942     11.127984
  H      20.597810     -7.872609     11.983660
  H      20.465529     -6.434962     13.019151
  C      19.312999    -20.521999      7.175001
  C      18.091980    -19.683478      7.426854
  C      16.842517    -20.120855      7.001923
  C      18.168121    -18.472397      8.104534
  C      15.698583    -19.391046      7.257413
  C      17.031050    -17.733618      8.371283
  C      15.783445    -18.192015      7.957472
  O      14.639304    -17.507255      8.214968
  H      19.761228    -20.307815      6.204785
  H      19.055452    -21.579065      7.196486
  H      20.066393    -20.329928      7.936278
  H      16.761217    -21.059213      6.470313
  H      19.127187    -18.107297      8.444005
  H      14.730301    -19.738343      6.930252
  H      17.060409    -16.791295      8.898100
  H      14.814726    -16.755343      8.799539
  C      19.522001    -11.465000      7.842998
  C      18.875237    -10.747376      9.006563
  N      19.055031    -11.469544     10.239445
  C      20.180370    -11.394042     10.966039
  O      21.143486    -10.710682     10.692483
  N      20.144559    -12.223354     12.082123
  H      19.317472    -10.958064      6.899981
  H      19.156586    -12.492327      7.788846
  H      20.597801    -11.491093      7.993149
  H      19.308472     -9.755352      9.133005
  H      17.803314    -10.648276      8.827844
  H      18.440127    -12.262265     10.384210
  H      20.698251    -11.859083     12.843588
  H      19.224687    -12.459065     12.360900
114
Coordinates from ORCA-job 01_xtb_cit_react E -175.275515406990
  C      16.304340    -11.263645     12.638273
  C      15.110861    -11.466838     13.510226
  C      13.959297    -11.895244     12.957017
  C      13.774921    -11.891813     11.521145
  C      14.704740    -11.409190     10.700345
  C      15.947877    -10.755320     11.234351
  C      12.904458    -12.544982     13.778778
  O      12.972494    -12.509880     15.030367
  O      12.041291    -13.206663     13.129693
  O      15.703224     -9.358305     11.165279
  O      17.017646    -12.531199     12.565775
  C      16.279794    -13.641996     12.218305
  C      16.229057    -13.991984     10.753928
  O      17.147176    -13.571919     10.015106
  O      15.266397    -14.686225     10.341038
  C      15.636810    -14.383501     13.126346
  H      17.044211    -10.592229     13.086070
  H      15.245892    -11.473591     14.580238
  H      12.837484    -12.277561     11.152240
  H      14.529687    -11.299362      9.644614
  H      16.814010    -10.925287     10.587681
  H      15.854816     -8.936810     12.013040
  H      15.089642    -15.256323     12.813492
  H      15.616825    -14.128707     14.176265
  O      12.456634    -14.884177     10.765038
  H      13.422308    -14.910275     10.696320
  H      12.270130    -14.335957     11.538786
  C      12.785000    -13.909001      5.224001
  C      13.493552    -12.580250      5.491685
  N      14.837171    -12.732654      6.008911
  C      15.187002    -13.210889      7.220960
  N      14.304619    -13.656890      8.092977
  N      16.468328    -13.322606      7.526081
  H      13.453745    -14.682279      4.845952
  H      11.992974    -13.754582      4.495662
  H      12.329130    -14.305489      6.128213
  H      13.585071    -12.025482      4.556818
  H      12.882077    -11.978501      6.175780
  H      15.583730    -12.331236      5.464794
  H      14.687364    -14.078281      8.969675
  H      13.316417    -13.658065      7.933478
  H      16.711700    -13.456362      8.561616
  H      17.163493    -12.868360      6.961419
  C       8.412999    -16.813004     15.233001
  C       9.810294    -17.354699     15.565976
  N      10.637045    -16.382349     16.250395
  C      11.071692    -15.254756     15.608155
  N      10.955256    -15.127240     14.311271
  N      11.574795    -14.241975     16.316397
  H       7.736528    -17.001581     16.066623
  H       8.009586    -17.319466     14.360375
  H       8.451305    -15.748088     15.029778
  H       9.736930    -18.236241     16.204417
  H      10.330500    -17.659641     14.652815
  H      10.521894    -16.306782     17.249296
  H      11.435823    -14.256958     13.805135
  H      10.580875    -15.864888     13.746582
  H      12.169201    -13.489711     15.769406
  H      11.724466    -14.345601     17.300441
  C      13.998001     -9.220000      7.724999
  O      15.240767     -9.757137      8.117501
  C      14.136110     -7.816845      7.139542
  H      13.329681     -9.174595      8.584877
  H      13.613296     -9.914263      6.974022
  H      15.570839     -9.220211      8.852656
  H      14.547915     -7.149208      7.888721
  H      14.806443     -7.825992      6.285128
  H      13.166263     -7.442523      6.827386
  C      14.518001     -6.670000     12.632999
  S      13.466185     -8.084991     13.080453
  H      14.324364     -6.427596     11.588086
  H      15.580623     -6.895124     12.713480
  H      14.265946     -5.823550     13.265303
  H      14.185439     -8.496679     14.115299
  C      20.972000     -6.019000     10.963999
  C      20.271926     -6.855109     12.032376
  C      18.700058     -6.889657     11.864862
  O      18.039554     -6.457851     12.839767
  O      18.267908     -7.372072     10.808410
  H      20.586780     -5.000259     11.007275
  H      20.754470     -6.429963      9.981992
  H      22.051510     -6.004307     11.115865
  H      20.621853     -7.888232     11.974948
  H      20.493298     -6.461827     13.026415
  C      19.312999    -20.521999      7.175000
  C      18.089847    -19.683665      7.425667
  C      16.842820    -20.117880      6.993104
  C      18.162876    -18.472612      8.105644
  C      15.699137    -19.386117      7.242741
  C      17.025277    -17.732136      8.366463
  C      15.780892    -18.187846      7.945325
  O      14.638106    -17.499569      8.196162
  H      19.761228    -20.307815      6.204785
  H      19.057018    -21.579601      7.195811
  H      20.066165    -20.329711      7.936439
  H      16.763581    -21.054074      6.457421
  H      19.119931    -18.107474      8.448249
  H      14.733085    -19.732332      6.910424
  H      17.051478    -16.789277      8.895001
  H      14.813405    -16.748854      8.782416
  C      19.522001    -11.465000      7.842998
  C      18.874860    -10.746075      9.011573
  N      19.048186    -11.477184     10.243696
  C      20.182482    -11.427059     10.977843
  O      21.160504    -10.753535     10.719057
  N      20.128484    -12.275795     12.087963
  H      19.317472    -10.958064      6.899981
  H      19.156085    -12.489428      7.785737
  H      20.599035    -11.495941      7.990943
  H      19.310136     -9.754842      9.144620
  H      17.801736    -10.642750      8.830414
  H      18.427310    -12.267780     10.382756
  H      20.690109    -11.931713     12.852940
  H      19.179766    -12.493259     12.359974
114
Coordinates from ORCA-job 01_xtb_cit_react E -175.275580531690
  C      16.299493    -11.250986     12.632774
  C      15.101706    -11.446724     13.502846
  C      13.948009    -11.870337     12.948822
  C      13.770547    -11.875790     11.513238
  C      14.705026    -11.401153     10.694510
  C      15.945907    -10.748615     11.227116
  C      12.892130    -12.517361     13.766882
  O      12.966772    -12.487136     15.015551
  O      12.026387    -13.177447     13.118366
  O      15.700901     -9.354957     11.152675
  O      17.008576    -12.521686     12.564050
  C      16.267188    -13.635640     12.218589
  C      16.222746    -13.988677     10.753553
  O      17.141896    -13.569697     10.015002
  O      15.263017    -14.681738     10.340656
  C      15.655733    -14.388408     13.115800
  H      17.042195    -10.579132     13.078628
  H      15.230488    -11.437992     14.577506
  H      12.835568    -12.260083     11.140273
  H      14.534685    -11.300917      9.637478
  H      16.811750    -10.922332     10.585481
  H      15.854775     -8.929790     12.000591
  H      15.126208    -15.270011     12.802024
  H      15.706267    -14.157884     14.161937
  O      12.454142    -14.871544     10.768409
  H      13.418321    -14.898137     10.697596
  H      12.265300    -14.315581     11.537136
  C      12.785000    -13.909001      5.224001
  C      13.491490    -12.580011      5.491839
  N      14.835874    -12.729981      6.005261
  C      15.188041    -13.208106      7.215783
  N      14.306318    -13.655629      8.087679
  N      16.472347    -13.319267      7.520356
  H      13.453745    -14.682279      4.845952
  H      11.992518    -13.754951      4.496018
  H      12.329666    -14.305801      6.128442
  H      13.579217    -12.023159      4.557905
  H      12.881366    -11.981644      6.179992
  H      15.580879    -12.327947      5.459484
  H      14.691432    -14.075903      8.965395
  H      13.317860    -13.653474      7.930109
  H      16.715859    -13.450345      8.558273
  H      17.165253    -12.860568      6.958052
  C       8.412999    -16.813004     15.233001
  C       9.822358    -17.323509     15.587978
  N      10.629152    -16.329958     16.266801
  C      11.045252    -15.198224     15.614461
  N      10.925995    -15.079859     14.315915
  N      11.584757    -14.217562     16.293444
  H       7.736528    -17.001581     16.066622
  H       8.023369    -17.351285     14.365185
  H       8.427831    -15.746336     15.007182
  H       9.761613    -18.200170     16.237487
  H      10.354564    -17.632014     14.682430
  H      10.509443    -16.248687     17.268019
  H      11.411847    -14.216741     13.801065
  H      10.570024    -15.837406     13.753608
  H      12.172653    -13.464623     15.753355
  H      11.790524    -14.354492     17.273185
  C      13.998001     -9.220000      7.724999
  O      15.241557     -9.755299      8.117412
  C      14.137302     -7.818179      7.139937
  H      13.329681     -9.174595      8.584877
  H      13.608933     -9.912953      6.973374
  H      15.572605     -9.218709      8.849233
  H      14.554322     -7.150474      7.892848
  H      14.808708     -7.830852      6.282618
  H      13.163776     -7.438877      6.830716
  C      14.518001     -6.670000     12.632999
  S      13.468612     -8.085816     13.079062
  H      14.324364     -6.427596     11.588086
  H      15.583005     -6.893905     12.716544
  H      14.262774     -5.824039     13.265002
  H      14.195828     -8.497309     14.117166
  C      20.972000     -6.019000     10.963999
  C      20.271929     -6.865874     12.029722
  C      18.696396     -6.910085     11.846018
  O      18.027768     -6.469979     12.779219
  O      18.271410     -7.382279     10.787028
  H      20.586780     -5.000259     11.007275
  H      20.758771     -6.427900      9.979472
  H      22.052285     -6.002710     11.117650
  H      20.629264     -7.897216     11.974209
  H      20.484703     -6.471764     13.029312
  C      19.312999    -20.521999      7.175001
  C      18.087595    -19.683294      7.429741
  C      16.839179    -20.116890      6.998389
  C      18.159492    -18.472164      8.112040
  C      15.694730    -19.384949      7.250270
  C      17.020866    -17.730862      8.374055
  C      15.776132    -18.186583      7.953962
  O      14.635063    -17.493337      8.200374
  H      19.761228    -20.307815      6.204785
  H      19.057674    -21.579885      7.194791
  H      20.067293    -20.331098      7.935786
  H      16.759367    -21.052502      6.461643
  H      19.117174    -18.105720      8.452477
  H      14.727782    -19.732267      6.920491
  H      17.048107    -16.786406      8.902057
  H      14.813454    -16.742545      8.786288
  C      19.522001    -11.465000      7.842998
  C      18.875068    -10.742017      9.012294
  N      19.047593    -11.473440     10.244647
  C      20.182989    -11.427938     10.982495
  O      21.166343    -10.760358     10.725803
  N      20.119720    -12.276280     12.095123
  H      19.317472    -10.958064      6.899981
  H      19.158246    -12.488103      7.784176
  H      20.599878    -11.496690      7.989675
  H      19.312459     -9.750734      9.146055
  H      17.801920    -10.636170      8.829766
  H      18.425250    -12.262861     10.382292
  H      20.688345    -11.940968     12.858667
  H      19.165366    -12.491987     12.364157
114
Coordinates from ORCA-job 01_xtb_cit_react E -175.276289131170
  C      16.290832    -11.245219     12.624518
  C      15.092190    -11.438677     13.492999
  C      13.941678    -11.870019     12.938622
  C      13.767009    -11.884069     11.501734
  C      14.703578    -11.414438     10.680927
  C      15.941530    -10.752324     11.213005
  C      12.884589    -12.516570     13.757150
  O      12.963903    -12.494371     15.003987
  O      12.014406    -13.170024     13.109366
  O      15.693968     -9.357247     11.123545
  O      16.999726    -12.516270     12.564198
  C      16.257506    -13.628759     12.219316
  C      16.216870    -13.986966     10.755272
  O      17.135968    -13.561819     10.019437
  O      15.261720    -14.690340     10.339842
  C      15.645783    -14.376688     13.115580
  H      17.031766    -10.570680     13.068606
  H      15.221826    -11.431271     14.564037
  H      12.832041    -12.271481     11.130046
  H      14.536408    -11.324029      9.620928
  H      16.811084    -10.928124     10.576765
  H      15.851413     -8.921138     11.967087
  H      15.119844    -15.258374     12.801847
  H      15.684103    -14.139706     14.158424
  O      12.452297    -14.889799     10.784196
  H      13.417627    -14.910402     10.707159
  H      12.263891    -14.327039     11.548651
  C      12.785000    -13.909001      5.224001
  C      13.489967    -12.579172      5.492841
  N      14.834250    -12.727740      6.008316
  C      15.185632    -13.212689      7.216931
  N      14.303699    -13.671264      8.084621
  N      16.469616    -13.320465      7.522314
  H      13.453745    -14.682279      4.845952
  H      11.992782    -13.755344      4.495517
  H      12.328814    -14.306575      6.127712
  H      13.578319    -12.021981      4.558985
  H      12.878230    -11.980936      6.180269
  H      15.578294    -12.321766      5.466302
  H      14.688356    -14.095341      8.961090
  H      13.315069    -13.670243      7.925681
  H      16.711943    -13.447386      8.560704
  H      17.161519    -12.844762      6.965149
  C       8.412999    -16.813004     15.233001
  C       9.810240    -17.332362     15.562816
  N      10.626172    -16.353799     16.232976
  C      11.037525    -15.215962     15.588708
  N      10.904348    -15.077069     14.297643
  N      11.573647    -14.237262     16.271467
  H       7.736528    -17.001581     16.066623
  H       8.018956    -17.326208     14.367679
  H       8.441148    -15.754598     15.021174
  H       9.748919    -18.211527     16.206278
  H      10.328602    -17.630335     14.650601
  H      10.521628    -16.292170     17.229925
  H      11.392813    -14.212646     13.791381
  H      10.538547    -15.818025     13.738087
  H      12.163044    -13.480277     15.736849
  H      11.781261    -14.381505     17.249215
  C      13.998001     -9.220000      7.724999
  O      15.236665     -9.768265      8.117748
  C      14.149053     -7.813848      7.146399
  H      13.329681     -9.174595      8.584877
  H      13.605208     -9.907576      6.969299
  H      15.573262     -9.227107      8.847966
  H      14.565536     -7.152358      7.904281
  H      14.824723     -7.824779      6.293365
  H      13.180807     -7.427835      6.831637
  C      14.518001     -6.670000     12.632999
  S      13.477674     -8.094605     13.077215
  H      14.324364     -6.427596     11.588086
  H      15.585624     -6.886557     12.719017
  H      14.255417     -5.825254     13.265491
  H      14.202703     -8.498943     14.116778
  C      20.972000     -6.019000     10.963999
  C      20.256575     -6.871088     12.013888
  C      18.684617     -6.917546     11.817546
  O      18.004554     -6.530700     12.805856
  O      18.269719     -7.359936     10.726511
  H      20.586780     -5.000259     11.007275
  H      20.772468     -6.421692      9.974370
  H      22.049458     -6.004740     11.133446
  H      20.614202     -7.901642     11.952715
  H      20.458984     -6.486622     13.017847
  C      19.312999    -20.521999      7.175001
  C      18.088539    -19.683485      7.428666
  C      16.840244    -20.116582      6.996726
  C      18.161926    -18.472610      8.110431
  C      15.695941    -19.384785      7.249207
  C      17.023664    -17.732373      8.374022
  C      15.778260    -18.187798      7.954641
  O      14.637742    -17.495523      8.206869
  H      19.761228    -20.307815      6.204785
  H      19.057512    -21.579842      7.194967
  H      20.067170    -20.330980      7.935869
  H      16.760330    -21.051706      6.459156
  H      19.120283    -18.106260      8.449818
  H      14.728727    -19.732003      6.919684
  H      17.049284    -16.789407      8.903563
  H      14.819925    -16.749187      8.798222
  C      19.522001    -11.465000      7.842998
  C      18.878079    -10.739626      9.011949
  N      19.044938    -11.470932     10.245102
  C      20.181351    -11.433284     10.981097
  O      21.168609    -10.773109     10.722737
  N      20.116778    -12.281034     12.092236
  H      19.317472    -10.958064      6.899981
  H      19.155055    -12.487921      7.784866
  H      20.600074    -11.500155      7.987852
  H      19.319439     -9.749964      9.144758
  H      17.806308    -10.629991      8.826140
  H      18.420256    -12.259267     10.381023
  H      20.691440    -11.952326     12.853906
  H      19.161160    -12.488887     12.363045
114
Coordinates from ORCA-job 01_xtb_cit_react E -175.277078728960
  C      16.279081    -11.247086     12.622016
  C      15.077174    -11.438073     13.486191
  C      13.928639    -11.868245     12.930274
  C      13.757472    -11.888843     11.491173
  C      14.697463    -11.421689     10.671789
  C      15.934432    -10.757188     11.208087
  C      12.865773    -12.504502     13.753258
  O      12.927741    -12.453790     15.004682
  O      12.004464    -13.170381     13.107187
  O      15.690944     -9.360791     11.114358
  O      16.993586    -12.514735     12.569407
  C      16.255431    -13.627025     12.223732
  C      16.218309    -13.989439     10.759561
  O      17.137988    -13.567247     10.024345
  O      15.262516    -14.696329     10.346821
  C      15.601756    -14.360583     13.132538
  H      17.014973    -10.569138     13.067433
  H      15.203309    -11.429801     14.558970
  H      12.822936    -12.280060     11.118260
  H      14.534317    -11.335112      9.609894
  H      16.807898    -10.936729     10.574749
  H      15.849679     -8.921697     11.954542
  H      15.066779    -15.239733     12.823176
  H      15.583100    -14.104672     14.181790
  O      12.453379    -14.905809     10.795981
  H      13.419467    -14.919916     10.716157
  H      12.263987    -14.340468     11.558214
  C      12.785000    -13.909001      5.224001
  C      13.491936    -12.580906      5.498193
  N      14.836284    -12.731736      6.015835
  C      15.188185    -13.217492      7.224517
  N      14.307764    -13.678701      8.091152
  N      16.471127    -13.321701      7.527835
  H      13.453745    -14.682279      4.845952
  H      11.995168    -13.752641      4.493518
  H      12.325637    -14.308260      6.125390
  H      13.582275    -12.020802      4.566146
  H      12.880159    -11.982981      6.185982
  H      15.579660    -12.329245      5.474228
  H      14.689344    -14.104230      8.967368
  H      13.319121    -13.675154      7.933146
  H      16.718723    -13.445581      8.563909
  H      17.158827    -12.843617      6.967693
  C       8.412999    -16.813004     15.233001
  C       9.815686    -17.326984     15.574048
  N      10.619594    -16.334075     16.255710
  C      11.033517    -15.199499     15.610537
  N      10.913159    -15.078305     14.312481
  N      11.526044    -14.171684     16.313176
  H       7.736528    -17.001581     16.066622
  H       8.021528    -17.329241     14.365589
  H       8.436881    -15.752895     15.020776
  H       9.753925    -18.205996     16.217169
  H      10.348271    -17.625296     14.665218
  H      10.504103    -16.264749     17.251993
  H      11.389692    -14.213207     13.802883
  H      10.555954    -15.827270     13.751909
  H      12.118442    -13.422673     15.757676
  H      11.684505    -14.271572     17.297901
  C      13.998001     -9.220000      7.724999
  O      15.234442     -9.771188      8.115886
  C      14.148911     -7.814853      7.143581
  H      13.329681     -9.174595      8.584877
  H      13.604823     -9.907743      6.970868
  H      15.571817     -9.233865      8.850844
  H      14.564791     -7.151849      7.896924
  H      14.822558     -7.828177      6.289948
  H      13.182100     -7.431618      6.828728
  C      14.518001     -6.670000     12.632998
  S      13.479650     -8.096597     13.077010
  H      14.324364     -6.427596     11.588086
  H      15.583116     -6.886274     12.718728
  H      14.255488     -5.825442     13.265514
  H      14.202257     -8.500040     14.118083
  C      20.972000     -6.019000     10.963999
  C      20.229350     -6.870982     11.989241
  C      18.664319     -6.913317     11.760629
  O      17.970852     -6.523433     12.734125
  O      18.267492     -7.376919     10.697044
  H      20.586780     -5.000259     11.007275
  H      20.794329     -6.413418      9.967309
  H      22.044548     -6.008912     11.160033
  H      20.586758     -7.902474     11.927811
  H      20.408852     -6.494102     12.998821
  C      19.312999    -20.521999      7.175001
  C      18.091668    -19.681686      7.429000
  C      16.843712    -20.112746      6.995263
  C      18.166812    -18.473152      8.113730
  C      15.700535    -19.380862      7.248889
  C      17.029944    -17.732145      8.377925
  C      15.784177    -18.185943      7.956732
  O      14.643490    -17.495250      8.210247
  H      19.761228    -20.307815      6.204785
  H      19.055068    -21.579187      7.194665
  H      20.067600    -20.332926      7.935884
  H      16.763012    -21.047138      6.456601
  H      19.125333    -18.109657      8.455317
  H      14.733360    -19.725698      6.917295
  H      17.054947    -16.790136      8.909008
  H      14.824590    -16.751007      8.803639
  C      19.522001    -11.465000      7.842998
  C      18.878151    -10.741010      9.012124
  N      19.042822    -11.471206     10.246726
  C      20.171533    -11.426042     10.986054
  O      21.157576    -10.767065     10.725189
  N      20.107160    -12.263191     12.100212
  H      19.317472    -10.958064      6.899981
  H      19.156437    -12.490133      7.786396
  H      20.599830    -11.498959      7.987374
  H      19.320524     -9.752552      9.143904
  H      17.807122    -10.631075      8.823046
  H      18.419411    -12.260109     10.384193
  H      20.687570    -11.938549     12.858386
  H      19.163302    -12.481888     12.373549
114
Coordinates from ORCA-job 01_xtb_cit_react E -175.278458621540
  C      16.274711    -11.239103     12.614801
  C      15.071916    -11.429558     13.476132
  C      13.923693    -11.859271     12.919309
  C      13.755227    -11.882536     11.482229
  C      14.697702    -11.420012     10.664035
  C      15.932796    -10.753984     11.199372
  C      12.859408    -12.492364     13.741344
  O      12.923927    -12.441753     14.991171
  O      11.996132    -13.157095     13.096895
  O      15.689416     -9.358804     11.099690
  O      16.988927    -12.506265     12.566039
  C      16.253097    -13.621209     12.222509
  C      16.216288    -13.986848     10.760123
  O      17.135422    -13.565129     10.024553
  O      15.262441    -14.694523     10.348815
  C      15.613708    -14.356998     13.128099
  H      17.009337    -10.559875     13.060262
  H      15.197444    -11.423526     14.545620
  H      12.821851    -12.273467     11.108311
  H      14.538420    -11.341288      9.601790
  H      16.807432    -10.937049     10.570021
  H      15.850388     -8.916800     11.937827
  H      15.082494    -15.240087     12.820814
  H      15.606910    -14.103945     14.177419
  O      12.453717    -14.904205     10.801735
  H      13.418915    -14.916327     10.719881
  H      12.262893    -14.334311     11.559501
  C      12.785000    -13.909001      5.224001
  C      13.490808    -12.580852      5.500845
  N      14.835423    -12.729749      6.017202
  C      15.188946    -13.215118      7.224956
  N      14.309919    -13.680344      8.090507
  N      16.473131    -13.318081      7.526926
  H      13.453745    -14.682279      4.845952
  H      11.995902    -13.751859      4.492923
  H      12.324616    -14.309222      6.124449
  H      13.579679    -12.018463      4.570190
  H      12.879606    -11.985552      6.190920
  H      15.579118    -12.317430      5.477059
  H      14.692328    -14.105705      8.966920
  H      13.321108    -13.675641      7.933543
  H      16.722203    -13.439667      8.562562
  H      17.156327    -12.836869      6.968358
  C       8.412999    -16.813004     15.233001
  C       9.822630    -17.307880     15.587756
  N      10.616659    -16.303075     16.263203
  C      11.024170    -15.172339     15.609972
  N      10.898277    -15.054949     14.312456
  N      11.530451    -14.158107     16.299210
  H       7.736528    -17.001581     16.066623
  H       8.029530    -17.350464     14.368167
  H       8.421337    -15.750757     15.005661
  H       9.768451    -18.181285     16.240212
  H      10.359765    -17.612041     14.684409
  H      10.498790    -16.225980     17.261446
  H      11.376185    -14.193551     13.798190
  H      10.542720    -15.806681     13.757130
  H      12.118022    -13.408377     15.744794
  H      11.705453    -14.265301     17.282225
  C      13.998001     -9.220000      7.724999
  O      15.234187     -9.771400      8.114394
  C      14.148950     -7.816579      7.143582
  H      13.329681     -9.174595      8.584877
  H      13.601510     -9.906325      6.971192
  H      15.572622     -9.235296      8.848225
  H      14.567131     -7.153435      7.896798
  H      14.821552     -7.832285      6.288321
  H      13.180884     -7.432077      6.831064
  C      14.518001     -6.670000     12.632999
  S      13.484345     -8.100239     13.074629
  H      14.324364     -6.427596     11.588086
  H      15.584908     -6.883186     12.720648
  H      14.251560     -5.827081     13.265737
  H      14.204199     -8.496221     14.119857
  C      20.972000     -6.019000     10.963999
  C      20.233520     -6.879033     11.990056
  C      18.666675     -6.935074     11.764127
  O      17.965881     -6.550993     12.719791
  O      18.277598     -7.379329     10.674036
  H      20.586780     -5.000259     11.007275
  H      20.794162     -6.412600      9.965962
  H      22.045541     -6.006742     11.157660
  H      20.596893     -7.908245     11.928076
  H      20.411642     -6.501754     13.000801
  C      19.312999    -20.521999      7.175001
  C      18.091964    -19.680040      7.430597
  C      16.843416    -20.109204      6.996331
  C      18.167725    -18.471881      8.116709
  C      15.700847    -19.376179      7.250492
  C      17.031266    -17.729850      8.381506
  C      15.785457    -18.181855      7.959537
  O      14.645861    -17.489075      8.213556
  H      19.761228    -20.307815      6.204785
  H      19.053860    -21.578914      7.193963
  H      20.068247    -20.334488      7.935671
  H      16.761881    -21.042676      6.456212
  H      19.126139    -18.109893      8.459432
  H      14.733709    -19.719321      6.917730
  H      17.056110    -16.787828      8.912997
  H      14.828740    -16.746286      8.808514
  C      19.522001    -11.465000      7.842998
  C      18.879400    -10.738171      9.011189
  N      19.043023    -11.468084     10.245189
  C      20.172930    -11.425432     10.986002
  O      21.162358    -10.770507     10.725747
  N      20.101986    -12.259089     12.102709
  H      19.317472    -10.958064      6.899981
  H      19.156635    -12.489823      7.786682
  H      20.599994    -11.499481      7.986632
  H      19.323790     -9.750523      9.142830
  H      17.808875    -10.626152      8.820474
  H      18.419027    -12.256244     10.382367
  H      20.687052    -11.941010     12.860079
  H      19.155669    -12.477230     12.375684
114
Coordinates from ORCA-job 01_xtb_cit_react E -175.279009908640
  C      16.271080    -11.234215     12.612541
  C      15.065326    -11.422495     13.472379
  C      13.917349    -11.852135     12.914266
  C      13.752883    -11.879667     11.476324
  C      14.698050    -11.420418     10.659921
  C      15.931517    -10.753012     11.195663
  C      12.850731    -12.484365     13.734412
  O      12.914420    -12.433643     14.983149
  O      11.987783    -13.148297     13.089437
  O      15.688793     -9.358485     11.092135
  O      16.985864    -12.501596     12.566285
  C      16.250096    -13.618239     12.223665
  C      16.213781    -13.985860     10.761894
  O      17.133152    -13.565745     10.026014
  O      15.260018    -14.693636     10.352156
  C      15.621009    -14.357719     13.126814
  H      17.005608    -10.553065     13.057312
  H      15.187231    -11.406219     14.547532
  H      12.820947    -12.270451     11.099532
  H      14.541028    -11.346956      9.597043
  H      16.807389    -10.939634     10.568924
  H      15.851947     -8.914762     11.929098
  H      15.092644    -15.243771     12.820881
  H      15.629592    -14.111381     14.173100
  O      12.452398    -14.903216     10.803223
  H      13.416961    -14.914355     10.721686
  H      12.259387    -14.330089     11.558087
  C      12.785000    -13.909001      5.224001
  C      13.490124    -12.581076      5.502300
  N      14.834732    -12.729971      6.017717
  C      15.189193    -13.215177      7.225016
  N      14.311064    -13.682266      8.089981
  N      16.474379    -13.314997      7.526734
  H      13.453745    -14.682279      4.845952
  H      11.995982    -13.751654      4.492879
  H      12.324416    -14.309850      6.124143
  H      13.578143    -12.016799      4.572653
  H      12.879588    -11.987576      6.194530
  H      15.577198    -12.318493      5.477674
  H      14.692792    -14.106691      8.967640
  H      13.321962    -13.676197      7.933360
  H      16.725662    -13.434931      8.561952
  H      17.155264    -12.831249      6.967739
  C       8.412999    -16.813004     15.233001
  C       9.823706    -17.301741     15.584546
  N      10.615952    -16.295497     16.256861
  C      11.015348    -15.161101     15.604593
  N      10.887540    -15.043081     14.307915
  N      11.530802    -14.159215     16.286828
  H       7.736528    -17.001581     16.066623
  H       8.031005    -17.350897     14.369835
  H       8.418183    -15.751813     15.004603
  H       9.773678    -18.175428     16.236994
  H      10.360539    -17.603094     14.680746
  H      10.498222    -16.218908     17.255570
  H      11.363379    -14.183072     13.793967
  H      10.541292    -15.804130     13.748206
  H      12.111837    -13.405090     15.736527
  H      11.720698    -14.279116     17.267520
  C      13.998001     -9.220000      7.724999
  O      15.234597     -9.770709      8.112960
  C      14.147997     -7.816757      7.142996
  H      13.329681     -9.174595      8.584877
  H      13.598945     -9.905761      6.971161
  H      15.573219     -9.237396      8.848359
  H      14.568538     -7.153647      7.895871
  H      14.818870     -7.833278      6.286535
  H      13.179181     -7.430985      6.832315
  C      14.518001     -6.670000     12.632998
  S      13.486982     -8.102190     13.072923
  H      14.324364     -6.427596     11.588087
  H      15.585019     -6.882052     12.722855
  H      14.249454     -5.828051     13.265803
  H      14.208499     -8.497357     14.119063
  C      20.972000     -6.019000     10.963999
  C      20.223265     -6.887268     11.975923
  C      18.658321     -6.943930     11.736544
  O      17.951160     -6.573617     12.695931
  O      18.276947     -7.382114     10.645540
  H      20.586780     -5.000259     11.007275
  H      20.806393     -6.406506      9.961468
  H      22.043244     -6.007600     11.169940
  H      20.587537     -7.915749     11.908258
  H      20.391968     -6.518021     12.991349
  C      19.312999    -20.521999      7.175001
  C      18.092786    -19.678057      7.431362
  C      16.843509    -20.105424      6.996392
  C      18.169604    -18.470319      8.118527
  C      15.701432    -19.371398      7.251148
  C      17.033708    -17.726969      8.383500
  C      15.787154    -18.177794      7.961526
  O      14.648062    -17.484486      8.216226
  H      19.761228    -20.307815      6.204785
  H      19.052369    -21.578548      7.193377
  H      20.068791    -20.336196      7.935548
  H      16.760986    -21.038251      6.455289
  H      19.128646    -18.109406      8.461470
  H      14.733619    -19.713591      6.918387
  H      17.058358    -16.785167      8.916045
  H      14.831174    -16.742864      8.812470
  C      19.522001    -11.465000      7.842998
  C      18.881180    -10.737367      9.011562
  N      19.044177    -11.468870     10.244380
  C      20.176792    -11.428684     10.986414
  O      21.171256    -10.779092     10.725823
  N      20.101594    -12.259669     12.104207
  H      19.317472    -10.958064      6.899981
  H      19.156743    -12.489655      7.787130
  H      20.600394    -11.500609      7.985204
  H      19.327910     -9.750971      9.143491
  H      17.810921    -10.623861      8.819099
  H      18.419798    -12.256479     10.382612
  H      20.692922    -11.951056     12.860405
  H      19.151435    -12.478271     12.378680
114
Coordinates from ORCA-job 01_xtb_cit_react E -175.279783112320
  C      16.262535    -11.226952     12.606407
  C      15.053417    -11.413350     13.462638
  C      13.906619    -11.842587     12.902445
  C      13.747063    -11.875474     11.464316
  C      14.696419    -11.421551     10.650007
  C      15.927434    -10.751445     11.186890
  C      12.835402    -12.469551     13.721665
  O      12.894197    -12.411377     14.970151
  O      11.973589    -13.134812     13.077344
  O      15.686754     -9.357281     11.075986
  O      16.979128    -12.493379     12.566275
  C      16.244806    -13.612361     12.225643
  C      16.210739    -13.985006     10.764658
  O      17.130688    -13.567226     10.028685
  O      15.257603    -14.694525     10.357053
  C      15.617975    -14.351263     13.129829
  H      16.994758    -10.543024     13.051300
  H      15.173308    -11.399163     14.535978
  H      12.816807    -12.267391     11.084463
  H      14.544290    -11.357372      9.585808
  H      16.805628    -10.944181     10.565183
  H      15.853518     -8.909441     11.910204
  H      15.093745    -15.240573     12.827066
  H      15.629398    -14.105002     14.174742
  O      12.449989    -14.905995     10.808490
  H      13.414241    -14.914267     10.726068
  H      12.253891    -14.327130     11.558352
  C      12.785000    -13.909001      5.224001
  C      13.489891    -12.581698      5.505620
  N      14.834962    -12.730613      6.019640
  C      15.191062    -13.216414      7.226138
  N      14.314348    -13.688185      8.089500
  N      16.477192    -13.311284      7.527166
  H      13.453745    -14.682279      4.845952
  H      11.996881    -13.750428      4.492192
  H      12.323194    -14.311027      6.123067
  H      13.576656    -12.014154      4.577850
  H      12.880243    -11.990997      6.200952
  H      15.576038    -12.316054      5.480585
  H      14.694375    -14.111761      8.968532
  H      13.325056    -13.679938      7.933351
  H      16.731913    -13.428524      8.561505
  H      17.154074    -12.821449      6.967733
  C       8.412999    -16.813004     15.233001
  C       9.826617    -17.290282     15.587017
  N      10.612560    -16.277053     16.255927
  C      11.005863    -15.142297     15.600924
  N      10.873806    -15.025980     14.304494
  N      11.518528    -14.137739     16.279865
  H       7.736528    -17.001581     16.066623
  H       8.035225    -17.357048     14.371954
  H       8.411052    -15.752978     14.999774
  H       9.782050    -18.161856     16.242647
  H      10.366304    -17.591322     14.684843
  H      10.495902    -16.200151     17.254061
  H      11.344774    -14.166777     13.789681
  H      10.526449    -15.783931     13.748980
  H      12.092627    -13.380954     15.727603
  H      11.710268    -14.256060     17.260704
  C      13.998001     -9.220000      7.724999
  O      15.234249     -9.771089      8.110772
  C      14.147750     -7.816747      7.142503
  H      13.329681     -9.174595      8.584877
  H      13.595061     -9.904335      6.971320
  H      15.573874     -9.241211      8.848210
  H      14.571335     -7.154072      7.894576
  H      14.816388     -7.834356      6.284292
  H      13.178422     -7.429446      6.834198
  C      14.518001     -6.670000     12.632998
  S      13.492594     -8.106783     13.070756
  H      14.324364     -6.427596     11.588086
  H      15.585656     -6.878874     12.725566
  H      14.245077     -5.829607     13.266038
  H      14.215934     -8.499241     14.118338
  C      20.972000     -6.019000     10.963999
  C      20.211993     -6.896096     11.961017
  C      18.649345     -6.960528     11.706130
  O      17.930164     -6.608478     12.661692
  O      18.282630     -7.385494     10.603153
  H      20.586780     -5.000259     11.007275
  H      20.819794     -6.400248      9.956410
  H      22.040773     -6.008321     11.183411
  H      20.580455     -7.922617     11.890132
  H      20.367914     -6.532912     12.981096
  C      19.312999    -20.521999      7.175001
  C      18.094406    -19.675725      7.432637
  C      16.844503    -20.100297      6.996249
  C      18.172917    -18.469272      8.121952
  C      15.703362    -19.365072      7.252057
  C      17.038127    -17.724304      8.387482
  C      15.790752    -18.173036      7.964910
  O      14.652605    -17.478806      8.220631
  H      19.761228    -20.307815      6.204785
  H      19.050159    -21.577998      7.192582
  H      20.069510    -20.338518      7.935394
  H      16.760751    -21.031890      6.453214
  H      19.132691    -18.110355      8.465526
  H      14.734885    -19.705413      6.918775
  H      17.062627    -16.783047      8.921408
  H      14.836381    -16.739410      8.819320
  C      19.522001    -11.465000      7.842998
  C      18.882587    -10.735768      9.011655
  N      19.043223    -11.468093     10.244098
  C      20.173964    -11.426982     10.988850
  O      21.169383    -10.780908     10.727923
  N      20.095108    -12.251511     12.108899
  H      19.317472    -10.958064      6.899981
  H      19.157313    -12.489796      7.788072
  H      20.600684    -11.501349      7.983841
  H      19.332137     -9.750860      9.143640
  H      17.813192    -10.619620      8.816244
  H      18.418818    -12.255168     10.383423
  H      20.693880    -11.953420     12.863067
  H      19.147430    -12.474601     12.385705
114
Coordinates from ORCA-job 01_xtb_cit_react E -175.280657118910
  C      16.245064    -11.218018     12.596328
  C      15.032017    -11.401794     13.447261
  C      13.886982    -11.830804     12.884087
  C      13.735299    -11.873564     11.445004
  C      14.689962    -11.426687     10.632899
  C      15.917225    -10.752015     11.171644
  C      12.809996    -12.449726     13.702252
  O      12.860995    -12.379762     14.950992
  O      11.951521    -13.120085     13.058689
  O      15.678297     -9.358358     11.048959
  O      16.964497    -12.482445     12.565981
  C      16.235485    -13.605005     12.227342
  C      16.205727    -13.984349     10.767352
  O      17.126621    -13.567275     10.032116
  O      15.254933    -14.698333     10.360936
  C      15.610996    -14.341862     13.132887
  H      16.972879    -10.530092     13.041511
  H      15.146330    -11.380561     14.522711
  H      12.807774    -12.268848     11.061783
  H      14.545616    -11.374305      9.567098
  H      16.799711    -10.951044     10.557398
  H      15.848930     -8.902978     11.878258
  H      15.092724    -15.235298     12.832881
  H      15.615163    -14.090352     14.178092
  O      12.446942    -14.916435     10.816675
  H      13.411338    -14.918715     10.731539
  H      12.247572    -14.330025     11.559847
  C      12.785000    -13.909001      5.224001
  C      13.489503    -12.582158      5.509924
  N      14.835232    -12.730600      6.022479
  C      15.193041    -13.217825      7.227864
  N      14.317441    -13.698446      8.088078
  N      16.480148    -13.307341      7.528034
  H      13.453745    -14.682279      4.845952
  H      11.998476    -13.748616      4.490891
  H      12.321172    -14.312449      6.121445
  H      13.574884    -12.011083      4.584236
  H      12.880205    -11.994533      6.208107
  H      15.575186    -12.307769      5.485769
  H      14.695621    -14.122061      8.967840
  H      13.328079    -13.688778      7.931891
  H      16.738034    -13.421786      8.561274
  H      17.151858    -12.808283      6.969653
  C       8.412999    -16.813004     15.233001
  C       9.830290    -17.274491     15.592922
  N      10.603657    -16.248492     16.258698
  C      10.985781    -15.112823     15.598513
  N      10.852905    -15.005644     14.300483
  N      11.490103    -14.099917     16.272337
  H       7.736528    -17.001581     16.066623
  H       8.041917    -17.366930     14.374922
  H       8.401400    -15.754712     14.992404
  H       9.793556    -18.142929     16.253338
  H      10.375047    -17.574848     14.693566
  H      10.485614    -16.167880     17.256664
  H      11.318789    -14.147299     13.780770
  H      10.518938    -15.775767     13.744794
  H      12.056872    -13.340947     15.714499
  H      11.683020    -14.210915     17.253986
  C      13.998001     -9.220000      7.724999
  O      15.232474     -9.775264      8.108249
  C      14.151088     -7.816117      7.144018
  H      13.329681     -9.174595      8.584877
  H      13.590491     -9.901307      6.970672
  H      15.573278     -9.248942      8.847269
  H      14.577359     -7.155409      7.896497
  H      14.819033     -7.834852      6.285185
  H      13.182421     -7.425824      6.836735
  C      14.518001     -6.670000     12.632998
  S      13.495653     -8.105639     13.075653
  H      14.324364     -6.427596     11.588087
  H      15.585708     -6.879434     12.721532
  H      14.247315     -5.830158     13.265669
  H      14.220829     -8.491933     14.124724
  C      20.972000     -6.019000     10.963999
  C      20.199997     -6.904142     11.945927
  C      18.640369     -6.976806     11.671527
  O      17.905603     -6.647186     12.625420
  O      18.292327     -7.384590     10.552291
  H      20.586780     -5.000259     11.007275
  H      20.833434     -6.394257      9.951948
  H      22.037875     -6.009359     11.197591
  H      20.573730     -7.929157     11.873527
  H      20.340867     -6.546036     12.970498
  C      19.312999    -20.521999      7.175001
  C      18.096056    -19.673974      7.433678
  C      16.846166    -20.095256      6.994533
  C      18.176065    -18.469413      8.126026
  C      15.706151    -19.358719      7.250849
  C      17.042469    -17.723188      8.392065
  C      15.795088    -18.168788      7.966973
  O      14.658272    -17.473099      8.224122
  H      19.761228    -20.307815      6.204785
  H      19.048181    -21.577521      7.191887
  H      20.070094    -20.340364      7.935280
  H      16.761638    -21.025129      6.448668
  H      19.135965    -18.113268      8.471612
  H      14.737691    -19.696169      6.915278
  H      17.066279    -16.783053      8.927657
  H      14.843361    -16.736860      8.826563
  C      19.522001    -11.465000      7.842998
  C      18.882343    -10.732624      9.011010
  N      19.038790    -11.463000     10.245044
  C      20.165051    -11.419325     10.994865
  O      21.162337    -10.776589     10.734840
  N      20.081261    -12.238670     12.117010
  H      19.317472    -10.958064      6.899981
  H      19.157680    -12.489928      7.789523
  H      20.600664    -11.501373      7.983461
  H      19.333596     -9.747947      9.142235
  H      17.814002    -10.614214      8.811951
  H      18.414251    -12.249824     10.384779
  H      20.687458    -11.952172     12.869756
  H      19.136329    -12.466275     12.394727
114
Coordinates from ORCA-job 01_xtb_cit_react E -175.281678078560
  C      16.226963    -11.207734     12.587941
  C      15.010514    -11.391568     13.433330
  C      13.868061    -11.821647     12.866914
  C      13.722751    -11.872466     11.427065
  C      14.682728    -11.432041     10.617257
  C      15.906231    -10.751807     11.158092
  C      12.785159    -12.431627     13.684779
  O      12.830206    -12.349930     14.933186
  O      11.928351    -13.104792     13.042757
  O      15.669504     -9.358387     11.023299
  O      16.951944    -12.468338     12.567939
  C      16.228102    -13.595092     12.232431
  C      16.201155    -13.982311     10.773697
  O      17.123521    -13.569417     10.038316
  O      15.250191    -14.699649     10.371007
  C      15.600300    -14.329978     13.143995
  H      16.948844    -10.514034     13.033522
  H      15.121046    -11.369892     14.508696
  H      12.797600    -12.270744     11.040417
  H      14.546691    -11.392585      9.549553
  H      16.793137    -10.959380     10.551727
  H      15.845264     -8.896348     11.847135
  H      15.082763    -15.226738     12.849325
  H      15.595274    -14.071813     14.188966
  O      12.440803    -14.923845     10.824860
  H      13.405583    -14.921095     10.739419
  H      12.236343    -14.330105     11.560957
  C      12.785000    -13.909001      5.224001
  C      13.489976    -12.583431      5.516033
  N      14.836442    -12.733157      6.027032
  C      15.195835    -13.219827      7.232277
  N      14.321496    -13.708640      8.089383
  N      16.483596    -13.300104      7.531777
  H      13.453745    -14.682279      4.845952
  H      12.000683    -13.745837      4.489196
  H      12.318298    -14.314423      6.119136
  H      13.574293    -12.007512      4.593226
  H      12.881408    -11.999417      6.217931
  H      15.574763    -12.305012      5.492520
  H      14.695711    -14.129579      8.971840
  H      13.332146    -13.697378      7.932536
  H      16.747131    -13.412037      8.562541
  H      17.148915    -12.793749      6.971813
  C       8.412999    -16.813004     15.233001
  C       9.834090    -17.261496     15.597669
  N      10.598588    -16.225712     16.259996
  C      10.971729    -15.090228     15.595776
  N      10.831623    -14.986235     14.297973
  N      11.469591    -14.070706     16.266488
  H       7.736528    -17.001581     16.066623
  H       8.046628    -17.376265     14.377044
  H       8.392215    -15.754942     14.985441
  H       9.803620    -18.126589     16.262436
  H      10.382933    -17.562697     14.700586
  H      10.480948    -16.141936     17.257775
  H      11.289226    -14.128136     13.775076
  H      10.497435    -15.754426     13.745890
  H      12.024856    -13.305051     15.704521
  H      11.658686    -14.173488     17.248677
  C      13.998001     -9.220000      7.724999
  O      15.231654     -9.776748      8.103863
  C      14.150850     -7.815528      7.143699
  H      13.329681     -9.174595      8.584877
  H      13.585445     -9.899076      6.971243
  H      15.572357     -9.256928      8.848701
  H      14.581959     -7.156154      7.893614
  H      14.814251     -7.835035      6.281917
  H      13.182088     -7.423646      6.840941
  C      14.518001     -6.670000     12.632998
  S      13.500267     -8.105418     13.084916
  H      14.324364     -6.427596     11.588087
  H      15.585886     -6.883660     12.712546
  H      14.252644     -5.829381     13.266110
  H      14.234059     -8.489370     14.129879
  C      20.972000     -6.019000     10.963999
  C      20.186284     -6.912187     11.926300
  C      18.632102     -6.987693     11.629174
  O      17.883594     -6.677605     12.578657
  O      18.305500     -7.382955     10.502034
  H      20.586780     -5.000259     11.007275
  H      20.849986     -6.386998      9.947451
  H      22.033544     -6.011312     11.214611
  H      20.562597     -7.936990     11.849893
  H      20.311199     -6.562153     12.955057
  C      19.312999    -20.521999      7.175001
  C      18.099012    -19.670404      7.435022
  C      16.848455    -20.086599      6.992796
  C      18.181895    -18.468652      8.131706
  C      15.710205    -19.348027      7.250660
  C      17.050256    -17.719939      8.398564
  C      15.801877    -18.161059      7.971312
  O      14.666241    -17.464437      8.231167
  H      19.761228    -20.307815      6.204785
  H      19.044612    -21.576629      7.190728
  H      20.071029    -20.343729      7.935147
  H      16.761955    -21.014389      6.443696
  H      19.142475    -18.116834      8.479827
  H      14.741082    -19.681534      6.913109
  H      17.073523    -16.781511      8.936823
  H      14.850893    -16.731195      8.837634
  C      19.522001    -11.465000      7.842998
  C      18.882706    -10.728538      9.010657
  N      19.035152    -11.457244     10.246082
  C      20.156894    -11.407659     11.002662
  O      21.157534    -10.768003     10.743886
  N      20.068070    -12.220539     12.126789
  H      19.317472    -10.958064      6.899981
  H      19.157338    -12.490415      7.792672
  H      20.600821    -11.501826      7.982653
  H      19.335659     -9.743753      9.141107
  H      17.815499    -10.608334      8.807512
  H      18.411295    -12.244352     10.388397
  H      20.684048    -11.950987     12.877378
  H      19.125796    -12.456313     12.407922
114
Coordinates from ORCA-job 01_xtb_cit_react E -175.282572901310
  C      16.206235    -11.195924     12.577395
  C      14.985493    -11.377479     13.417552
  C      13.845785    -11.809137     12.847486
  C      13.708682    -11.869826     11.407285
  C      14.674088    -11.436397     10.600062
  C      15.893597    -10.750699     11.142657
  C      12.756394    -12.410159     13.663771
  O      12.792364    -12.314031     14.911957
  O      11.903234    -13.088011     13.022426
  O      15.657634     -9.358509     10.995815
  O      16.935809    -12.453786     12.568351
  C      16.216760    -13.584931     12.235803
  C      16.194457    -13.979265     10.778724
  O      17.118338    -13.569790     10.043679
  O      15.244803    -14.700230     10.378697
  C      15.594819    -14.321665     13.150027
  H      16.923472    -10.497046     13.022555
  H      15.091323    -11.355097     14.490797
  H      12.787036    -12.272919     11.017069
  H      14.547567    -11.410858      9.530639
  H      16.783982    -10.967157     10.544642
  H      15.839440     -8.888847     11.814559
  H      15.083718    -15.222003     12.857977
  H      15.588276    -14.058328     14.193644
  O      12.434346    -14.931090     10.830951
  H      13.399155    -14.923381     10.745271
  H      12.224636    -14.329300     11.558771
  C      12.785000    -13.909001      5.224001
  C      13.490558    -12.584758      5.520818
  N      14.838005    -12.735865      6.028988
  C      15.198974    -13.222582      7.233896
  N      14.325981    -13.720861      8.086786
  N      16.486988    -13.292213      7.534341
  H      13.453745    -14.682279      4.845952
  H      12.002584    -13.743270      4.487811
  H      12.315742    -14.315967      6.117084
  H      13.573043    -12.004703      4.600490
  H      12.882974    -12.004360      6.226521
  H      15.573654    -12.303196      5.496840
  H      14.696143    -14.137803      8.972826
  H      13.336958    -13.708907      7.928343
  H      16.753522    -13.402888      8.563430
  H      17.146468    -12.776831      6.974690
  C       8.412999    -16.813004     15.233001
  C       9.838171    -17.246280     15.597614
  N      10.593022    -16.201090     16.255274
  C      10.954330    -15.063554     15.586831
  N      10.812168    -14.966985     14.288111
  N      11.437767    -14.029401     16.256581
  H       7.736528    -17.001581     16.066623
  H       8.051850    -17.381865     14.380842
  H       8.384044    -15.757878     14.980442
  H       9.815894    -18.109520     16.264710
  H      10.389844    -17.543847     14.700996
  H      10.476025    -16.115092     17.252447
  H      11.259220    -14.108136     13.761848
  H      10.491055    -15.742745     13.736748
  H      11.983246    -13.258866     15.690947
  H      11.624199    -14.123251     17.238777
  C      13.998001     -9.220000      7.724999
  O      15.230871     -9.778673      8.099774
  C      14.151842     -7.814121      7.145945
  H      13.329681     -9.174595      8.584877
  H      13.579625     -9.895371      6.970692
  H      15.571369     -9.264218      8.849151
  H      14.588809     -7.158240      7.895238
  H      14.810965     -7.832574      6.280908
  H      13.182879     -7.418987      6.848845
  C      14.518001     -6.670000     12.632998
  S      13.503778     -8.106506     13.091423
  H      14.324364     -6.427596     11.588087
  H      15.587146     -6.889173     12.703369
  H      14.257297     -5.827549     13.267674
  H      14.243217     -8.486525     14.131391
  C      20.972000     -6.019000     10.963999
  C      20.175684     -6.918212     11.910640
  C      18.626395     -6.995843     11.588969
  O      17.864570     -6.706558     12.533065
  O      18.319594     -7.373250     10.453819
  H      20.586780     -5.000259     11.007275
  H      20.863239     -6.381799      9.944689
  H      22.029967     -6.013173     11.228067
  H      20.554841     -7.941690     11.834436
  H      20.285602     -6.573525     12.942335
  C      19.312999    -20.521999      7.175001
  C      18.101370    -19.667655      7.436594
  C      16.849935    -20.079073      6.992044
  C      18.187291    -18.468309      8.136938
  C      15.713348    -19.338597      7.251578
  C      17.057360    -17.717522      8.405047
  C      15.807819    -18.154403      7.976378
  O      14.673979    -17.456110      8.238509
  H      19.761228    -20.307815      6.204785
  H      19.041835    -21.575926      7.189574
  H      20.071857    -20.346676      7.934961
  H      16.761465    -21.004777      6.439766
  H      19.148895    -18.119923      8.486164
  H      14.743323    -19.668779      6.912999
  H      17.080467    -16.780575      8.945862
  H      14.858839    -16.725925      8.848772
  C      19.522001    -11.465000      7.842998
  C      18.881774    -10.724036      9.008985
  N      19.028811    -11.451096     10.246051
  C      20.145205    -11.394740     11.009799
  O      21.141622    -10.750411     10.757030
  N      20.053145    -12.203306     12.134643
  H      19.317472    -10.958064      6.899981
  H      19.156373    -12.490163      7.796315
  H      20.600611    -11.502033      7.983299
  H      19.335706     -9.739540      9.139296
  H      17.815709    -10.600885      8.802193
  H      18.405303    -12.238180     10.390263
  H      20.675355    -11.947356     12.883582
  H      19.115005    -12.446093     12.419858
114
Coordinates from ORCA-job 01_xtb_cit_react E -175.283722082150
  C      16.179118    -11.175847     12.560088
  C      14.952879    -11.352867     13.393648
  C      13.816458    -11.787745     12.819832
  C      13.691171    -11.866528     11.378974
  C      14.663444    -11.443798     10.574186
  C      15.877129    -10.748666     11.117931
  C      12.719628    -12.376607     13.634650
  O      12.747815    -12.265215     14.881358
  O      11.868029    -13.058231     12.995774
  O      15.639673     -9.359009     10.952739
  O      16.912992    -12.431171     12.567497
  C      16.199354    -13.567738     12.239522
  C      16.184065    -13.972649     10.785253
  O      17.109520    -13.566797     10.051057
  O      15.238046    -14.699861     10.388095
  C      15.578487    -14.302868     13.158099
  H      16.890701    -10.469590     13.003111
  H      15.048082    -11.310140     14.471559
  H      12.774415    -12.277243     10.985201
  H      14.550303    -11.439033      9.502522
  H      16.771872    -10.976729     10.531931
  H      15.829847     -8.877188     11.764015
  H      15.072446    -15.207152     12.870771
  H      15.566933    -14.029424     14.199749
  O      12.425152    -14.940036     10.842857
  H      13.389854    -14.925422     10.755251
  H      12.208992    -14.325624     11.558384
  C      12.785000    -13.909001      5.224001
  C      13.490953    -12.586213      5.527322
  N      14.839769    -12.738249      6.031378
  C      15.202893    -13.225409      7.235659
  N      14.332187    -13.738985      8.081906
  N      16.491153    -13.280896      7.538054
  H      13.453745    -14.682279      4.845952
  H      12.005374    -13.739805      4.485686
  H      12.311980    -14.318047      6.114141
  H      13.570672    -12.000780      4.610267
  H      12.884785    -12.010833      6.238137
  H      15.572350    -12.291032      5.504536
  H      14.697285    -14.150470      8.972716
  H      13.343550    -13.727370      7.920853
  H      16.759565    -13.390440      8.565657
  H      17.142492    -12.750937      6.981173
  C       8.412999    -16.813004     15.233001
  C       9.845283    -17.217533     15.604939
  N      10.582248    -16.153479     16.253429
  C      10.926544    -15.016080     15.575965
  N      10.775620    -14.927270     14.277653
  N      11.399966    -13.973787     16.237850
  H       7.736528    -17.001581     16.066623
  H       8.063243    -17.400019     14.387366
  H       8.366597    -15.761636     14.966154
  H       9.836777    -18.074718     16.280635
  H      10.402741    -17.514666     14.711541
  H      10.468181    -16.063363     17.250062
  H      11.213388    -14.069338     13.744217
  H      10.462683    -15.705606     13.733113
  H      11.933050    -13.196438     15.668447
  H      11.592575    -14.061391     17.220293
  C      13.998001     -9.220000      7.724999
  O      15.229128     -9.784208      8.093378
  C      14.155535     -7.811695      7.151280
  H      13.329681     -9.174595      8.584877
  H      13.570580     -9.888845      6.969151
  H      15.569790     -9.275735      8.847150
  H      14.602121     -7.162313      7.901029
  H      14.808613     -7.828946      6.281479
  H      13.186350     -7.409569      6.863021
  C      14.518001     -6.670000     12.632998
  S      13.504541     -8.103512     13.098508
  H      14.324364     -6.427596     11.588087
  H      15.588004     -6.896637     12.691097
  H      14.266075     -5.825868     13.268796
  H      14.253863     -8.485050     14.129342
  C      20.972000     -6.019000     10.963999
  C      20.158838     -6.926478     11.889441
  C      18.616557     -7.008601     11.531331
  O      17.831179     -6.753996     12.468786
  O      18.340270     -7.354785     10.378608
  H      20.586780     -5.000259     11.007275
  H      20.882367     -6.374812      9.940434
  H      22.025184     -6.015442     11.247996
  H      20.542400     -7.948029     11.815908
  H      20.246003     -6.588311     12.925639
  C      19.312999    -20.521999      7.175001
  C      18.104091    -19.664083      7.439345
  C      16.851389    -20.069177      6.992328
  C      18.193843    -18.467800      8.144694
  C      15.716892    -19.326328      7.254644
  C      17.066040    -17.714563      8.415220
  C      15.815058    -18.145709      7.984817
  O      14.684016    -17.444499      8.250440
  H      19.761228    -20.307815      6.204785
  H      19.038319    -21.575038      7.188036
  H      20.073033    -20.350502      7.934621
  H      16.760189    -20.992208      6.436062
  H      19.156487    -18.124122      8.495660
  H      14.745999    -19.651798      6.914161
  H      17.089114    -16.779331      8.959105
  H      14.870409    -16.718918      8.866148
  C      19.522001    -11.465000      7.842998
  C      18.880936    -10.716964      9.005731
  N      19.019804    -11.440688     10.245369
  C      20.130106    -11.377363     11.018188
  O      21.130779    -10.735152     10.768630
  N      20.033310    -12.183687     12.142392
  H      19.317472    -10.958064      6.899981
  H      19.154308    -12.489316      7.801307
  H      20.600273    -11.502516      7.984378
  H      19.336748     -9.733377      9.135125
  H      17.816471    -10.589041      8.794023
  H      18.396065    -12.227069     10.391261
  H      20.665736    -11.946986     12.888558
  H      19.099137    -12.432258     12.432366
114
Coordinates from ORCA-job 01_xtb_cit_react E -175.285078795560
  C      16.138721    -11.148875     12.533323
  C      14.905934    -11.323447     13.356006
  C      13.776150    -11.766062     12.775770
  C      13.666364    -11.866326     11.336702
  C      14.647598    -11.457480     10.535815
  C      15.852700    -10.747166     11.081291
  C      12.666323    -12.334529     13.588684
  O      12.682212    -12.199823     14.832878
  O      11.817051    -13.021211     12.953208
  O      15.610839     -9.361730     10.890013
  O      16.879847    -12.398824     12.565120
  C      16.173953    -13.542712     12.243985
  C      16.168668    -13.962625     10.794065
  O      17.096663    -13.562017     10.061450
  O      15.228370    -14.699832     10.400701
  C      15.554440    -14.275342     13.169607
  H      16.840892    -10.432235     12.974138
  H      14.994755    -11.287096     14.424092
  H      12.756447    -12.289195     10.940063
  H      14.554932    -11.483544      9.461795
  H      16.753268    -10.992295     10.512198
  H      15.813848     -8.863030     11.689781
  H      15.051529    -15.184196     12.889659
  H      15.535659    -13.985839     14.206893
  O      12.412099    -14.957544     10.858511
  H      13.376557    -14.932074     10.768403
  H      12.186430    -14.325549     11.555214
  C      12.785000    -13.909001      5.224001
  C      13.492508    -12.588855      5.536506
  N      14.843499    -12.744074      6.033792
  C      15.209445    -13.231585      7.237532
  N      14.342808    -13.770208      8.072751
  N      16.497146    -13.263022      7.544590
  H      13.453745    -14.682279      4.845952
  H      12.009749    -13.734546      4.482307
  H      12.305872    -14.320968      6.109538
  H      13.568349    -11.995787      4.624088
  H      12.889154    -12.020030      6.254805
  H      15.570169    -12.279150      5.515267
  H      14.699340    -14.171500      8.971786
  H      13.354750    -13.761783      7.906390
  H      16.765911    -13.373913      8.570127
  H      17.136211    -12.711440      6.993567
  C       8.412999    -16.813004     15.233001
  C       9.852510    -17.175988     15.611782
  N      10.562983    -16.086640     16.246122
  C      10.877543    -14.947608     15.557224
  N      10.719812    -14.874446     14.258634
  N      11.334732    -13.894757     16.207876
  H       7.736528    -17.001581     16.066623
  H       8.080149    -17.424154     14.397894
  H       8.342393    -15.768759     14.945688
  H       9.863396    -18.023708     16.298484
  H      10.416974    -17.470736     14.721840
  H      10.449644    -15.987644     17.242461
  H      11.144124    -14.018654     13.712311
  H      10.444155    -15.675892     13.716522
  H      11.853011    -13.109056     15.632752
  H      11.537521    -13.974402     17.189484
  C      13.998001     -9.220000      7.724999
  O      15.226695     -9.794560      8.080668
  C      14.161573     -7.807891      7.160629
  H      13.329681     -9.174595      8.584877
  H      13.556434     -9.877860      6.966835
  H      15.566902     -9.295076      8.842547
  H      14.624445     -7.169864      7.909838
  H      14.803007     -7.822690      6.282308
  H      13.192480     -7.394545      6.888868
  C      14.518001     -6.670000     12.632998
  S      13.497009     -8.094148     13.104397
  H      14.324364     -6.427596     11.588087
  H      15.587867     -6.911406     12.673493
  H      14.283067     -5.822893     13.269955
  H      14.260223     -8.490103     14.117148
  C      20.972000     -6.019000     10.963999
  C      20.135066     -6.934929     11.860599
  C      18.605875     -7.022660     11.449057
  O      17.785772     -6.817371     12.370682
  O      18.376677     -7.319514     10.272553
  H      20.586780     -5.000259     11.007275
  H      20.907643     -6.366271      9.935677
  H      22.017947     -6.019030     11.274668
  H      20.524149     -7.954504     11.795497
  H      20.188294     -6.602876     12.900804
  C      19.312999    -20.521999      7.175001
  C      18.108787    -19.658545      7.442385
  C      16.854500    -20.053663      6.991285
  C      18.204844    -18.466740      8.154626
  C      15.723610    -19.306708      7.256921
  C      17.080667    -17.709748      8.428617
  C      15.827561    -18.131525      7.994968
  O      14.700633    -17.426692      8.266898
  H      19.761228    -20.307815      6.204785
  H      19.032891    -21.573645      7.185872
  H      20.074529    -20.356064      7.934303
  H      16.759042    -20.972763      6.429250
  H      19.168849    -18.130693      8.508794
  H      14.751600    -19.624655      6.912896
  H      17.104293    -16.777691      8.977760
  H      14.888997    -16.708504      8.891033
  C      19.522001    -11.465000      7.842998
  C      18.880405    -10.706376      9.000683
  N      19.006982    -11.426899     10.242889
  C      20.109128    -11.354742     11.029159
  O      21.110674    -10.708225     10.789562
  N      20.005303    -12.159813     12.151412
  H      19.317472    -10.958064      6.899981
  H      19.149723    -12.487872      7.809209
  H      20.599831    -11.503950      7.986107
  H      19.339815     -9.724591      9.129584
  H      17.818152    -10.570625      8.781605
  H      18.382673    -12.212346     10.390211
  H      20.651654    -11.949063     12.893403
  H      19.073859    -12.413385     12.450117
114
Coordinates from ORCA-job 01_xtb_cit_react E -175.286241593310
  C      16.081605    -11.107581     12.495880
  C      14.835981    -11.269142     13.303465
  C      13.714392    -11.721639     12.715292
  C      13.633802    -11.866092     11.275800
  C      14.628169    -11.475943     10.481631
  C      15.820102    -10.742765     11.029860
  C      12.588037    -12.265933     13.523100
  O      12.581015    -12.096177     14.763227
  O      11.745631    -12.963930     12.891145
  O      15.569894     -9.364267     10.805583
  O      16.830038    -12.352317     12.563986
  C      16.138034    -13.506981     12.250912
  C      16.147850    -13.946750     10.806621
  O      17.079511    -13.550629     10.077319
  O      15.217924    -14.698507     10.415385
  C      15.539984    -14.240188     13.179831
  H      16.773150    -10.377642     12.931424
  H      14.896418    -11.171545     14.384164
  H      12.735277    -12.309949     10.875195
  H      14.564351    -11.543236      9.406886
  H      16.727655    -11.008567     10.483269
  H      15.788114     -8.843825     11.590465
  H      15.050045    -15.157368     12.907189
  H      15.518462    -13.932421     14.210626
  O      12.397319    -14.979409     10.882288
  H      13.360908    -14.939380     10.786829
  H      12.159830    -14.322780     11.551856
  C      12.785000    -13.909001      5.224001
  C      13.495779    -12.592837      5.547530
  N      14.849764    -12.752847      6.035956
  C      15.218994    -13.240905      7.238925
  N      14.358848    -13.814572      8.058423
  N      16.505415    -13.240603      7.554341
  H      13.453745    -14.682279      4.845952
  H      12.015657    -13.727633      4.477736
  H      12.297513    -14.324316      6.103444
  H      13.567334    -11.991078      4.640439
  H      12.896487    -12.031007      6.274632
  H      15.568106    -12.260510      5.531141
  H      14.704759    -14.201104      8.968441
  H      13.371744    -13.813582      7.883993
  H      16.769766    -13.355072      8.579154
  H      17.128796    -12.659984      7.015946
  C       8.412999    -16.813004     15.233001
  C       9.864696    -17.106203     15.626294
  N      10.532006    -15.976732     16.236750
  C      10.812021    -14.843741     15.525144
  N      10.642050    -14.794496     14.227077
  N      11.229150    -13.761708     16.160384
  H       7.736528    -17.001581     16.066623
  H       8.110338    -17.465313     14.416749
  H       8.301742    -15.781788     14.909865
  H       9.906239    -17.936875     16.332382
  H      10.441860    -17.399514     14.743995
  H      10.420588    -15.863051     17.232290
  H      11.049472    -13.942407     13.661648
  H      10.395018    -15.610393     13.702786
  H      11.728126    -12.972147     15.574110
  H      11.427902    -13.814047     17.142780
  C      13.998001     -9.220000      7.724999
  O      15.223140     -9.811664      8.060128
  C      14.173369     -7.802861      7.176009
  H      13.329681     -9.174595      8.584877
  H      13.536209     -9.861143      6.963508
  H      15.562505     -9.321110      8.829746
  H      14.657449     -7.182155      7.926304
  H      14.800707     -7.813667      6.287206
  H      13.205573     -7.372817      6.925953
  C      14.518001     -6.670000     12.632998
  S      13.479427     -8.078654     13.104786
  H      14.324364     -6.427596     11.588087
  H      15.587306     -6.930635     12.654738
  H      14.304670     -5.819308     13.271039
  H      14.254605     -8.503585     14.093857
  C      20.972000     -6.019000     10.963999
  C      20.102797     -6.940491     11.826450
  C      18.594379     -7.035078     11.342064
  O      17.728699     -6.888415     12.233047
  O      18.430464     -7.262042     10.139335
  H      20.586780     -5.000259     11.007275
  H      20.937363     -6.357577      9.931568
  H      22.007783     -6.024616     11.306956
  H      20.497820     -7.958425     11.781230
  H      20.108701     -6.609047     12.868360
  C      19.312999    -20.521999      7.175001
  C      18.114711    -19.651445      7.447791
  C      16.857898    -20.034181      6.993482
  C      18.218860    -18.465182      8.169092
  C      15.731534    -19.282242      7.264771
  C      17.099033    -17.703821      8.449219
  C      15.842931    -18.114014      8.012757
  O      14.721755    -17.403454      8.292362
  H      19.761228    -20.307815      6.204785
  H      19.025961    -21.571849      7.182792
  H      20.076772    -20.363732      7.933719
  H      16.756691    -20.948074      6.423880
  H      19.185044    -18.137881      8.525376
  H      14.757546    -19.591794      6.918469
  H      17.124326    -16.775538      9.004923
  H      14.914291    -16.695122      8.926879
  C      19.522001    -11.465000      7.842998
  C      18.879166    -10.690466      8.994636
  N      18.989288    -11.405413     10.241099
  C      20.078813    -11.322923     11.043791
  O      21.069867    -10.660840     10.821969
  N      19.965807    -12.125582     12.165368
  H      19.317472    -10.958064      6.899981
  H      19.142999    -12.485300      7.819287
  H      20.599270    -11.506544      7.988280
  H      19.343697     -9.710522      9.121646
  H      17.819875    -10.544360      8.765842
  H      18.363451    -12.189527     10.388328
  H      20.625787    -11.937807     12.901889
  H      19.037494    -12.379260     12.476143
114
Coordinates from ORCA-job 01_xtb_cit_react E -175.286976023800
  C      16.065444    -11.100370     12.480608
  C      14.815341    -11.258073     13.282187
  C      13.697268    -11.715017     12.691566
  C      13.626248    -11.874234     11.254464
  C      14.623785    -11.489417     10.462716
  C      15.810471    -10.746868     11.011039
  C      12.562433    -12.245389     13.497554
  O      12.548737    -12.062549     14.735481
  O      11.720390    -12.945264     12.867206
  O      15.556439     -9.371880     10.777805
  O      16.816976    -12.341868     12.563936
  C      16.128527    -13.499532     12.253890
  C      16.143547    -13.945479     10.811905
  O      17.077696    -13.551401     10.083610
  O      15.217259    -14.701658     10.421631
  C      15.525361    -14.229597     13.187539
  H      16.753056    -10.365319     12.914051
  H      14.871534    -11.161620     14.357780
  H      12.732084    -12.327468     10.855579
  H      14.571179    -11.574847      9.389106
  H      16.720077    -11.021203     10.471391
  H      15.783650     -8.844413     11.554942
  H      15.037063    -15.147808     12.918318
  H      15.496327    -13.912558     14.217015
  O      12.394635    -14.994740     10.894995
  H      13.357606    -14.947931     10.796360
  H      12.153348    -14.328249     11.553015
  C      12.785000    -13.909001      5.224001
  C      13.498661    -12.596261      5.553718
  N      14.854291    -12.761801      6.036682
  C      15.224791    -13.249741      7.239766
  N      14.369404    -13.842910      8.050708
  N      16.509470    -13.230462      7.560866
  H      13.453745    -14.682279      4.845952
  H      12.019498    -13.723415      4.474804
  H      12.292050    -14.325834      6.099621
  H      13.569039    -11.990080      4.649556
  H      12.902422    -12.036244      6.284483
  H      15.568323    -12.242559      5.544251
  H      14.709617    -14.219133      8.967577
  H      13.383248    -13.849918      7.870955
  H      16.769408    -13.353432      8.585109
  H      17.126251    -12.635356      7.029916
  C       8.412999    -16.813004     15.233001
  C       9.869139    -17.079118     15.629180
  N      10.518829    -15.933340     16.228698
  C      10.777568    -14.798043     15.510772
  N      10.602375    -14.758530     14.212840
  N      11.185144    -13.710237     16.137539
  H       7.736528    -17.001581     16.066623
  H       8.122426    -17.477594     14.424262
  H       8.287097    -15.788886     14.898042
  H       9.924669    -17.903411     16.342661
  H      10.450836    -17.370578     14.748772
  H      10.413871    -15.818625     17.223043
  H      11.007043    -13.911397     13.638067
  H      10.383021    -15.589292     13.693555
  H      11.679946    -12.921581     15.549340
  H      11.397330    -13.761053     17.119183
  C      13.998001     -9.220000      7.724999
  O      15.222963     -9.822915      8.045873
  C      14.181841     -7.800970      7.183413
  H      13.329681     -9.174595      8.584877
  H      13.527123     -9.852301      6.961528
  H      15.562245     -9.340431      8.822581
  H      14.680768     -7.190801      7.932249
  H      14.798941     -7.811461      6.287872
  H      13.215849     -7.359361      6.947721
  C      14.518001     -6.670000     12.632999
  S      13.452954     -8.063237     13.092389
  H      14.324364     -6.427596     11.588086
  H      15.583972     -6.942118     12.656634
  H      14.314682     -5.816249     13.271694
  H      14.209643     -8.503451     14.080766
  C      20.972000     -6.019000     10.963999
  C      20.090911     -6.944292     11.808693
  C      18.594962     -7.039626     11.290444
  O      17.712072     -6.919622     12.166073
  O      18.452426     -7.232703     10.081943
  H      20.586780     -5.000259     11.007275
  H      20.948422     -6.352347      9.929557
  H      22.003458     -6.027212     11.319376
  H      20.488923     -7.961584     11.770282
  H      20.075229     -6.614912     12.851420
  C      19.312999    -20.521999      7.175001
  C      18.117437    -19.649040      7.448810
  C      16.859610    -20.025694      6.992562
  C      18.225905    -18.465781      8.173537
  C      15.735715    -19.270901      7.266220
  C      17.109045    -17.702363      8.456425
  C      15.851107    -18.106071      8.018807
  O      14.732712    -17.393227      8.302795
  H      19.761228    -20.307815      6.204785
  H      19.023485    -21.571167      7.181830
  H      20.077397    -20.366326      7.933621
  H      16.755449    -20.937362      6.419871
  H      19.193345    -18.142620      8.530450
  H      14.760798    -19.576095      6.918608
  H      17.137688    -16.777463      9.016137
  H      14.927210    -16.689444      8.941806
  C      19.522001    -11.465000      7.842998
  C      18.882290    -10.685415      8.991014
  N      18.987020    -11.396932     10.239651
  C      20.069199    -11.307518     11.050621
  O      21.066549    -10.644820     10.831178
  N      19.960565    -12.118880     12.165996
  H      19.317472    -10.958064      6.899981
  H      19.139001    -12.483439      7.823192
  H      20.599044    -11.508912      7.988130
  H      19.350169     -9.707044      9.114784
  H      17.824131    -10.534680      8.758366
  H      18.361144    -12.181557     10.386176
  H      20.628873    -11.938746     12.897251
  H      19.038357    -12.372971     12.482173
114
Coordinates from ORCA-job 01_xtb_cit_react E -175.287884135120
  C      16.063338    -11.105439     12.473084
  C      14.809165    -11.254966     13.270279
  C      13.692960    -11.715575     12.678801
  C      13.629050    -11.888511     11.245244
  C      14.627153    -11.506230     10.455724
  C      15.810327    -10.756917     11.002148
  C      12.550490    -12.232113     13.482881
  O      12.530082    -12.037591     14.718817
  O      11.708216    -12.933269     12.853666
  O      15.553000     -9.384818     10.763719
  O      16.811814    -12.346451     12.568582
  C      16.121144    -13.503002     12.257529
  C      16.144534    -13.951176     10.815878
  O      17.081787    -13.554639     10.089482
  O      15.224390    -14.712187     10.422857
  C      15.504449    -14.227005     13.189632
  H      16.751223    -10.368851     12.904386
  H      14.867479    -11.173478     14.336120
  H      12.738501    -12.350303     10.850517
  H      14.582462    -11.607531      9.384579
  H      16.720969    -11.035788     10.463494
  H      15.790187     -8.850310     11.529164
  H      15.015137    -15.145023     12.919697
  H      15.487761    -13.916816     14.216795
  O      12.402905    -15.018213     10.921378
  H      13.364398    -14.963027     10.812046
  H      12.162823    -14.342593     11.570114
  C      12.785000    -13.909001      5.224001
  C      13.502969    -12.601189      5.558518
  N      14.858845    -12.775838      6.037996
  C      15.230310    -13.265989      7.239765
  N      14.380905    -13.879867      8.040964
  N      16.513368    -13.229520      7.567557
  H      13.453745    -14.682279      4.845952
  H      12.023711    -13.719270      4.471512
  H      12.286153    -14.326464      6.095905
  H      13.575277    -11.992249      4.656326
  H      12.909955    -12.039647      6.290321
  H      15.567241    -12.252743      5.554354
  H      14.718797    -14.246521      8.963193
  H      13.395945    -13.898475      7.856022
  H      16.764917    -13.364296      8.593339
  H      17.124435    -12.617303      7.049792
  C       8.412999    -16.813004     15.233001
  C       9.873062    -17.047835     15.639051
  N      10.497145    -15.883343     16.232022
  C      10.739420    -14.750066     15.506419
  N      10.562021    -14.722838     14.207522
  N      11.132793    -13.653983     16.122885
  H       7.736528    -17.001581     16.066623
  H       8.138626    -17.494982     14.431821
  H       8.269565    -15.795889     14.882256
  H       9.942689    -17.865070     16.360104
  H      10.464838    -17.335973     14.763411
  H      10.390630    -15.764249     17.227428
  H      10.974333    -13.884783     13.624151
  H      10.362466    -15.565695     13.700061
  H      11.634943    -12.877650     15.530903
  H      11.355700    -13.700674     17.104995
  C      13.998001     -9.220000      7.724999
  O      15.219322     -9.837941      8.040039
  C      14.200409     -7.801834      7.189819
  H      13.329681     -9.174595      8.584877
  H      13.521061     -9.842414      6.957186
  H      15.562082     -9.365487      8.818991
  H      14.713560     -7.203303      7.939638
  H      14.813127     -7.818041      6.291159
  H      13.239671     -7.343117      6.962141
  C      14.518001     -6.670000     12.632998
  S      13.421335     -8.048446     13.073587
  H      14.324364     -6.427596     11.588087
  H      15.579453     -6.944037     12.675733
  H      14.316227     -5.814218     13.270405
  H      14.177586     -8.545175     14.048846
  C      20.972000     -6.019000     10.963999
  C      20.076719     -6.948475     11.789340
  C      18.594148     -7.049148     11.237831
  O      17.690663     -6.956592     12.099788
  O      18.468396     -7.204965     10.020051
  H      20.586780     -5.000259     11.007275
  H      20.960098     -6.345689      9.926370
  H      21.998997     -6.029956     11.332793
  H      20.480078     -7.964695     11.759960
  H      20.035372     -6.618973     12.832771
  C      19.312999    -20.521999      7.175001
  C      18.118512    -19.648889      7.450000
  C      16.859837    -20.021509      6.993036
  C      18.229685    -18.468938      8.178573
  C      15.737670    -19.264841      7.269917
  C      17.115434    -17.704524      8.464725
  C      15.856113    -18.102884      8.026484
  O      14.740788    -17.386844      8.313551
  H      19.761228    -20.307815      6.204785
  H      19.023168    -21.571133      7.181363
  H      20.077934    -20.367421      7.933398
  H      16.753315    -20.931548      6.418118
  H      19.197800    -18.149027      8.536245
  H      14.762249    -19.566779      6.921274
  H      17.149856    -16.783035      9.028143
  H      14.940640    -16.687822      8.956058
  C      19.522001    -11.465000      7.842998
  C      18.890189    -10.684041      8.989599
  N      18.994230    -11.396542     10.238729
  C      20.074571    -11.313429     11.053559
  O      21.067992    -10.642409     10.843913
  N      19.967587    -12.136396     12.163284
  H      19.317472    -10.958064      6.899981
  H      19.136228    -12.481731      7.822595
  H      20.599545    -11.513637      7.984258
  H      19.366076     -9.708704      9.111185
  H      17.832110    -10.526610      8.755193
  H      18.367453    -12.181311     10.380141
  H      20.641195    -11.952689     12.889600
  H      19.042565    -12.379082     12.483912
114
Coordinates from ORCA-job 01_xtb_cit_react E -175.288679391960
  C      16.078629    -11.124649     12.481671
  C      14.824438    -11.268803     13.279516
  C      13.708119    -11.733570     12.691675
  C      13.644678    -11.916805     11.259034
  C      14.638741    -11.529662     10.467203
  C      15.821208    -10.774513     11.010475
  C      12.564324    -12.244072     13.496982
  O      12.542589    -12.045329     14.731638
  O      11.720808    -12.943979     12.869003
  O      15.564109     -9.401849     10.775273
  O      16.827397    -12.362331     12.583046
  C      16.140073    -13.518594     12.269763
  C      16.160183    -13.963153     10.827569
  O      17.098948    -13.565297     10.100599
  O      15.240583    -14.724347     10.433346
  C      15.517948    -14.239073     13.201237
  H      16.766170    -10.385790     12.910228
  H      14.882180    -11.173537     14.349449
  H      12.755064    -12.386660     10.871199
  H      14.592339    -11.638606      9.397519
  H      16.730742    -11.053868     10.466071
  H      15.814129     -8.863974     11.531908
  H      15.026011    -15.156074     12.930759
  H      15.475530    -13.925267     14.234020
  O      12.421541    -15.047127     10.956202
  H      13.381248    -14.983815     10.837098
  H      12.185096    -14.368405     11.601749
  C      12.785000    -13.909001      5.224001
  C      13.507857    -12.606635      5.567901
  N      14.863517    -12.791620      6.047649
  C      15.233643    -13.281972      7.250325
  N      14.391358    -13.916523      8.042564
  N      16.513484    -13.229334      7.584621
  H      13.453745    -14.682279      4.845952
  H      12.029227    -13.713733      4.467260
  H      12.278030    -14.328250      6.090350
  H      13.586069    -11.994038      4.668417
  H      12.916931    -12.041706      6.298845
  H      15.568162    -12.239335      5.584035
  H      14.728094    -14.270564      8.970451
  H      13.407940    -13.953392      7.851217
  H      16.758332    -13.382767      8.610106
  H      17.120322    -12.608308      7.076590
  C       8.412999    -16.813004     15.233001
  C       9.870064    -17.042375     15.640273
  N      10.484511    -15.876644     16.235214
  C      10.720056    -14.742044     15.514146
  N      10.543115    -14.716563     14.215688
  N      11.100862    -13.641848     16.131009
  H       7.736528    -17.001581     16.066623
  H       8.142743    -17.495795     14.432656
  H       8.267332    -15.797925     14.879981
  H       9.941898    -17.858413     16.359810
  H      10.464871    -17.325857     14.765926
  H      10.379771    -15.762410     17.230871
  H      10.966288    -13.885619     13.632336
  H      10.363205    -15.569393     13.712715
  H      11.617923    -12.875648     15.540197
  H      11.321166    -13.687822     17.111958
  C      13.998001     -9.220000      7.724999
  O      15.216099     -9.854486      8.030822
  C      14.219382     -7.802952      7.195733
  H      13.329681     -9.174595      8.584877
  H      13.518771     -9.833981      6.952279
  H      15.563619     -9.397405      8.818505
  H      14.743760     -7.216293      7.945416
  H      14.828173     -7.824565      6.295654
  H      13.266927     -7.328505      6.973245
  C      14.518001     -6.670000     12.632999
  S      13.383574     -8.033504     13.048539
  H      14.324364     -6.427596     11.588086
  H      15.570058     -6.945445     12.705093
  H      14.313938     -5.811852     13.268852
  H      14.090844     -8.536891     14.047207
  C      20.972000     -6.019000     10.963999
  C      20.073131     -6.953778     11.771445
  C      18.602270     -7.054363     11.206945
  O      17.696085     -6.982426     12.061798
  O      18.469354     -7.180455      9.987673
  H      20.586780     -5.000259     11.007275
  H      20.966408     -6.338025      9.923691
  H      21.996086     -6.031309     11.339369
  H      20.481692     -7.968199     11.741034
  H      20.017315     -6.630172     12.814507
  C      19.312999    -20.521999      7.175001
  C      18.120798    -19.647557      7.450949
  C      16.860748    -20.015310      6.993876
  C      18.236182    -18.471057      8.183286
  C      15.741293    -19.255868      7.274568
  C      17.125009    -17.704787      8.473751
  C      15.863683    -18.097197      8.035416
  O      14.750117    -17.380606      8.327852
  H      19.761228    -20.307815      6.204785
  H      19.022004    -21.570903      7.180669
  H      20.078662    -20.369385      7.933131
  H      16.750965    -20.923168      6.416154
  H      19.205327    -18.156020      8.542618
  H      14.764702    -19.553946      6.925639
  H      17.167937    -16.787436      9.042412
  H      14.953487    -16.684442      8.971981
  C      19.522001    -11.465000      7.842998
  C      18.902873    -10.686773      8.991171
  N      19.013090    -11.400073     10.239409
  C      20.094280    -11.319884     11.051855
  O      21.077487    -10.634423     10.849488
  N      19.993109    -12.150451     12.158829
  H      19.317472    -10.958064      6.899981
  H      19.132079    -12.481158      7.821181
  H      20.600663    -11.520925      7.976892
  H      19.386641     -9.715361      9.108855
  H      17.844545    -10.526422      8.757261
  H      18.388201    -12.185840     10.378306
  H      20.665020    -11.946773     12.881073
  H      19.065274    -12.379713     12.488426
114
Coordinates from ORCA-job 01_xtb_cit_react E -175.289388327870
  C      16.075063    -11.118180     12.479572
  C      14.815484    -11.248694     13.274040
  C      13.700628    -11.717693     12.685838
  C      13.647618    -11.923084     11.253829
  C      14.645500    -11.541348     10.462320
  C      15.823186    -10.778551     11.003596
  C      12.548070    -12.215519     13.487882
  O      12.513004    -12.001456     14.720132
  O      11.709352    -12.921323     12.859384
  O      15.565756     -9.407168     10.756956
  O      16.818801    -12.357366     12.594390
  C      16.131556    -13.514085     12.279553
  C      16.160362    -13.962448     10.838399
  O      17.100559    -13.561498     10.116121
  O      15.247569    -14.729639     10.439426
  C      15.507518    -14.230432     13.205328
  H      16.762270    -10.376375     12.903771
  H      14.868258    -11.138509     14.344995
  H      12.762480    -12.403835     10.867571
  H      14.605642    -11.666780      9.393457
  H      16.731539    -11.061228     10.462111
  H      15.829172     -8.854955     11.502686
  H      15.018708    -15.149539     12.933558
  H      15.473456    -13.924678     14.235846
  O      12.434578    -15.065944     10.995594
  H      13.391543    -14.993403     10.862348
  H      12.198607    -14.376396     11.631105
  C      12.785000    -13.909001      5.224001
  C      13.511333    -12.610003      5.575935
  N      14.867565    -12.798498      6.055516
  C      15.236089    -13.292579      7.257787
  N      14.400102    -13.951444      8.037474
  N      16.513272    -13.225974      7.601349
  H      13.453745    -14.682279      4.845952
  H      12.033158    -13.709122      4.464490
  H      12.272218    -14.329744      6.086219
  H      13.592134    -11.993208      4.679450
  H      12.922401    -12.045943      6.309271
  H      15.566665    -12.213018      5.614176
  H      14.734559    -14.295553      8.969317
  H      13.418785    -14.004345      7.838353
  H      16.749799    -13.390059      8.628064
  H      17.115150    -12.589509      7.108376
  C       8.412999    -16.813004     15.233001
  C       9.874020    -17.003401     15.652696
  N      10.458260    -15.816056     16.238982
  C      10.678607    -14.684777     15.507934
  N      10.504769    -14.673837     14.207309
  N      11.025881    -13.561516     16.118178
  H       7.736528    -17.001581     16.066623
  H       8.161226    -17.515886     14.442666
  H       8.246586    -15.806125     14.862000
  H       9.960573    -17.809493     16.382194
  H      10.480451    -17.284222     14.785995
  H      10.354638    -15.698557     17.233905
  H      10.936257    -13.850119     13.621286
  H      10.343354    -15.536204     13.715667
  H      11.555593    -12.811318     15.521306
  H      11.236652    -13.590985     17.099704
  C      13.998001     -9.220000      7.724999
  O      15.207029     -9.870125      8.026746
  C      14.239930     -7.803228      7.205502
  H      13.329681     -9.174595      8.584877
  H      13.511664     -9.823278      6.947462
  H      15.561011     -9.422391      8.814841
  H      14.772481     -7.229703      7.959928
  H      14.849160     -7.828614      6.305510
  H      13.295529     -7.312494      6.984724
  C      14.518001     -6.670000     12.632998
  S      13.379828     -8.033670     13.050873
  H      14.324364     -6.427596     11.588087
  H      15.571445     -6.937999     12.717801
  H      14.306565     -5.810915     13.265679
  H      14.080192     -8.542904     14.055541
  C      20.972000     -6.019000     10.963999
  C      20.047638     -6.958546     11.740392
  C      18.590960     -7.054204     11.144398
  O      17.662680     -7.007306     11.988564
  O      18.486572     -7.145704      9.917183
  H      20.586780     -5.000259     11.007275
  H      20.994483     -6.328044      9.920543
  H      21.985644     -6.035862     11.367294
  H      20.453768     -7.974407     11.713825
  H      19.964746     -6.643569     12.783806
  C      19.312999    -20.521999      7.175001
  C      18.123321    -19.643181      7.456724
  C      16.861333    -20.003704      6.999020
  C      18.242282    -18.469922      8.195846
  C      15.744647    -19.241419      7.284518
  C      17.132753    -17.700595      8.491247
  C      15.870166    -18.087011      8.051511
  O      14.759163    -17.366976      8.346950
  H      19.761228    -20.307815      6.204785
  H      19.018334    -21.570025      7.178178
  H      20.080667    -20.374874      7.932271
  H      16.747979    -20.907457      6.415667
  H      19.212934    -18.159030      8.555257
  H      14.766923    -19.535259      6.935063
  H      17.180734    -16.785062      9.065025
  H      14.967614    -16.675100      8.994365
  C      19.522001    -11.465000      7.842998
  C      18.909076    -10.678692      8.996753
  N      19.017876    -11.390616     10.246380
  C      20.098542    -11.315392     11.058361
  O      21.092518    -10.637363     10.854669
  N      19.996863    -12.154003     12.161594
  H      19.317472    -10.958064      6.899981
  H      19.127056    -12.479802      7.821298
  H      20.601743    -11.529434      7.969705
  H      19.399234     -9.709746      9.113976
  H      17.852475    -10.515502      8.761444
  H      18.392064    -12.176982     10.381449
  H      20.668572    -11.940853     12.881823
  H      19.066209    -12.368776     12.494222
114
Coordinates from ORCA-job 01_xtb_cit_react E -175.290142440900
  C      16.079699    -11.134135     12.486103
  C      14.819212    -11.261598     13.280069
  C      13.703267    -11.726379     12.693450
  C      13.651074    -11.936460     11.261427
  C      14.650291    -11.555078     10.469289
  C      15.828215    -10.796215     11.009756
  C      12.548344    -12.218579     13.494123
  O      12.511918    -12.000819     14.724831
  O      11.711118    -12.925114     12.865421
  O      15.578677     -9.425113     10.762052
  O      16.825108    -12.371805     12.602418
  C      16.141463    -13.530803     12.285467
  C      16.170949    -13.976175     10.843452
  O      17.112108    -13.578598     10.124427
  O      15.255265    -14.738093     10.443719
  C      15.509148    -14.247323     13.210690
  H      16.763547    -10.388429     12.908667
  H      14.868316    -11.134591     14.357521
  H      12.768147    -12.420589     10.874285
  H      14.609448    -11.684780      9.400635
  H      16.734027    -11.080535     10.466097
  H      15.859940     -8.868639     11.498170
  H      15.022386    -15.168335     12.939420
  H      15.471613    -13.947936     14.242557
  O      12.446932    -15.082701     11.017486
  H      13.401625    -15.004421     10.875848
  H      12.209177    -14.390108     11.649814
  C      12.785000    -13.909001      5.224001
  C      13.514962    -12.613377      5.583099
  N      14.871563    -12.807763      6.060527
  C      15.239936    -13.304380      7.262889
  N      14.408253    -13.978255      8.033439
  N      16.513287    -13.222904      7.615950
  H      13.453745    -14.682279      4.845952
  H      12.036401    -13.704320      4.462816
  H      12.268353    -14.330327      6.083601
  H      13.597035    -11.991574      4.690249
  H      12.929119    -12.051593      6.321316
  H      15.565759    -12.228294      5.625485
  H      14.739099    -14.311021      8.969227
  H      13.429404    -14.044689      7.827447
  H      16.749013    -13.402102      8.640050
  H      17.113384    -12.579348      7.129043
  C       8.412999    -16.813004     15.233001
  C       9.873922    -16.995679     15.657603
  N      10.447013    -15.800962     16.241890
  C      10.661006    -14.670457     15.508512
  N      10.482353    -14.661421     14.207039
  N      11.006303    -13.545996     16.115972
  H       7.736528    -17.001581     16.066623
  H       8.164102    -17.517000     14.443552
  H       8.243848    -15.807451     14.861797
  H       9.964275    -17.798534     16.391543
  H      10.484532    -17.276334     14.794054
  H      10.351409    -15.685537     17.236663
  H      10.921447    -13.841819     13.623091
  H      10.320745    -15.521493     13.718795
  H      11.540504    -12.800168     15.520123
  H      11.220840    -13.575022     17.097457
  C      13.998001     -9.220000      7.724999
  O      15.197151     -9.880293      8.023836
  C      14.251965     -7.801352      7.215937
  H      13.329681     -9.174595      8.584877
  H      13.509276     -9.816315      6.942613
  H      15.554743     -9.454581      8.821693
  H      14.792453     -7.239832      7.974692
  H      14.859422     -7.827647      6.314463
  H      13.313290     -7.297118      6.999309
  C      14.518001     -6.670000     12.632999
  S      13.377185     -8.027858     13.069062
  H      14.324364     -6.427596     11.588086
  H      15.567077     -6.950922     12.721248
  H      14.308915     -5.808424     13.261281
  H      14.086815     -8.537367     14.076925
  C      20.972000     -6.019000     10.963999
  C      20.045970     -6.964275     11.725368
  C      18.594646     -7.058428     11.127381
  O      17.660449     -7.034031     11.966249
  O      18.503621     -7.131058      9.896607
  H      20.586780     -5.000259     11.007275
  H      21.009635     -6.322324      9.920268
  H      21.980223     -6.035899     11.378445
  H      20.455120     -7.977971     11.689796
  H      19.956984     -6.660522     12.770128
  C      19.312999    -20.521999      7.175001
  C      18.126412    -19.638785      7.460198
  C      16.863917    -19.990584      6.997295
  C      18.247995    -18.469789      8.206340
  C      15.750637    -19.224390      7.283952
  C      17.141053    -17.695287      8.502224
  C      15.878407    -18.074095      8.056859
  O      14.768278    -17.352518      8.351229
  H      19.761228    -20.307815      6.204785
  H      19.013970    -21.568776      7.176161
  H      20.081819    -20.379594      7.931838
  H      16.747631    -20.890247      6.408439
  H      19.219249    -18.164745      8.569355
  H      14.772592    -19.511865      6.930278
  H      17.195987    -16.782799      9.081607
  H      14.976135    -16.660921      8.998749
  C      19.522001    -11.465000      7.842998
  C      18.910867    -10.677168      9.004557
  N      19.023414    -11.390054     10.251977
  C      20.097241    -11.303859     11.063995
  O      21.073901    -10.610204     10.865723
  N      20.009293    -12.145255     12.164220
  H      19.317472    -10.958064      6.899981
  H      19.125845    -12.479220      7.819409
  H      20.601654    -11.533359      7.964801
  H      19.401864     -9.709945      9.122830
  H      17.855841    -10.515558      8.771130
  H      18.402164    -12.180015     10.385921
  H      20.673981    -11.915077     12.885826
  H      19.087340    -12.363003     12.499848
114
Coordinates from ORCA-job 01_xtb_cit_react E -175.291071444880
  C      16.096516    -11.159815     12.503272
  C      14.839547    -11.288163     13.300942
  C      13.721237    -11.748491     12.716862
  C      13.661686    -11.949733     11.284930
  C      14.658840    -11.566443     10.490826
  C      15.841484    -10.817222     11.029282
  C      12.566237    -12.239077     13.518048
  O      12.529568    -12.021305     14.748802
  O      11.729877    -12.944776     12.888153
  O      15.602497     -9.444377     10.783393
  O      16.839796    -12.398694     12.610655
  C      16.155472    -13.557133     12.289890
  C      16.184205    -13.994507     10.844552
  O      17.126030    -13.596261     10.128785
  O      15.263658    -14.749626     10.441861
  C      15.529658    -14.279553     13.210310
  H      16.780889    -10.414988     12.925836
  H      14.896226    -11.173317     14.376876
  H      12.778626    -12.430839     10.896212
  H      14.610098    -11.692608      9.422022
  H      16.743106    -11.100475     10.476864
  H      15.905242     -8.886209     11.509765
  H      15.052440    -15.203683     12.936995
  H      15.496154    -13.989716     14.245334
  O      12.465334    -15.102738     11.040396
  H      13.418171    -15.018737     10.887560
  H      12.228217    -14.411337     11.674555
  C      12.785000    -13.909001      5.224001
  C      13.514766    -12.615072      5.590619
  N      14.872084    -12.809888      6.066340
  C      15.238291    -13.311836      7.267958
  N      14.409180    -14.001605      8.028383
  N      16.507502    -13.219686      7.631298
  H      13.453745    -14.682279      4.845952
  H      12.038875    -13.700148      4.461832
  H      12.265250    -14.331241      6.081383
  H      13.596480    -11.988029      4.701706
  H      12.930055    -12.058367      6.334079
  H      15.561356    -12.208066      5.648393
  H      14.738774    -14.325330      8.966611
  H      13.433559    -14.085240      7.813811
  H      16.744289    -13.415529      8.651735
  H      17.109848    -12.571586      7.150062
  C       8.412999    -16.813004     15.233001
  C       9.871355    -17.000154     15.663275
  N      10.437921    -15.806170     16.254953
  C      10.655885    -14.678833     15.521462
  N      10.475963    -14.669606     14.219714
  N      10.998767    -13.552923     16.129698
  H       7.736528    -17.001581     16.066623
  H       8.161859    -17.513761     14.440636
  H       8.247896    -15.804738     14.866419
  H       9.957884    -17.805165     16.395216
  H      10.487346    -17.277133     14.801646
  H      10.340010    -15.689569     17.251705
  H      10.926908    -13.852515     13.641551
  H      10.305213    -15.523169     13.732275
  H      11.544505    -12.813558     15.536528
  H      11.207793    -13.580247     17.113124
  C      13.998001     -9.220000      7.724999
  O      15.184402     -9.893166      8.029292
  C      14.265802     -7.798427      7.229005
  H      13.329681     -9.174595      8.584877
  H      13.509819     -9.809002      6.936011
  H      15.547987     -9.489935      8.835884
  H      14.804731     -7.248723      7.997244
  H      14.881028     -7.822946      6.332587
  H      13.334657     -7.283067      7.006832
  C      14.518001     -6.670000     12.632998
  S      13.380981     -8.021670     13.092840
  H      14.324364     -6.427596     11.588087
  H      15.561184     -6.967881     12.726112
  H      14.309563     -5.806520     13.256444
  H      14.083072     -8.484882     14.126826
  C      20.972000     -6.019000     10.963999
  C      20.051331     -6.979475     11.711424
  C      18.594124     -7.065240     11.124440
  O      17.669383     -7.063703     11.969020
  O      18.492489     -7.129915      9.897119
  H      20.586780     -5.000259     11.007275
  H      21.023506     -6.313703      9.918756
  H      21.977266     -6.034480     11.386467
  H      20.464996     -7.990273     11.648533
  H      19.970403     -6.700137     12.764806
  C      19.312999    -20.521999      7.175001
  C      18.130221    -19.634016      7.461240
  C      16.868063    -19.977500      6.991565
  C      18.253504    -18.468901      8.212905
  C      15.758239    -19.207125      7.277092
  C      17.149316    -17.689116      8.507419
  C      15.887593    -18.060162      8.054881
  O      14.777177    -17.338432      8.347654
  H      19.761228    -20.307815      6.204785
  H      19.008785    -21.567191      7.174560
  H      20.082310    -20.383722      7.931921
  H      16.749222    -20.874141      6.398685
  H      19.223964    -18.170850      8.582566
  H      14.780419    -19.487814      6.917748
  H      17.210897    -16.780292      9.092139
  H      14.982544    -16.645147      8.994273
  C      19.522001    -11.465000      7.842998
  C      18.915259    -10.681090      9.012451
  N      19.034181    -11.400855     10.255057
  C      20.113704    -11.316318     11.063402
  O      21.086869    -10.618420     10.868892
  N      20.026394    -12.162665     12.163307
  H      19.317472    -10.958064      6.899981
  H      19.123952    -12.477445      7.815193
  H      20.600957    -11.537230      7.961006
  H      19.407250     -9.715008      9.132850
  H      17.859169    -10.521165      8.785456
  H      18.416827    -12.193827     10.387080
  H      20.679062    -11.916914     12.892583
  H      19.096494    -12.372822     12.497932
114
Coordinates from ORCA-job 01_xtb_cit_react E -175.292230080320
  C      16.114241    -11.163708     12.506267
  C      14.858583    -11.290895     13.306659
  C      13.738810    -11.751108     12.724401
  C      13.676501    -11.953153     11.292596
  C      14.674687    -11.575818     10.495176
  C      15.860615    -10.828884     11.029573
  C      12.578326    -12.234484     13.525273
  O      12.536746    -12.012181     14.754613
  O      11.742354    -12.939399     12.894223
  O      15.634174     -9.454130     10.772738
  O      16.855091    -12.404677     12.615926
  C      16.170344    -13.565073     12.298459
  C      16.200107    -14.004198     10.852395
  O      17.144062    -13.607172     10.140227
  O      15.274863    -14.753627     10.447173
  C      15.546594    -14.287017     13.221545
  H      16.798417    -10.417330     12.926426
  H      14.919484    -11.181245     14.379662
  H      12.793619    -12.433861     10.902647
  H      14.621197    -11.709433      9.426188
  H      16.755648    -11.120042     10.475838
  H      15.969972     -8.887254     11.484517
  H      15.073382    -15.215353     12.954542
  H      15.502688    -13.989588     14.258962
  O      12.487371    -15.117083     11.076977
  H      13.437181    -15.025011     10.909491
  H      12.247695    -14.420715     11.704203
  C      12.785000    -13.909001      5.224001
  C      13.513487    -12.617171      5.603841
  N      14.873875    -12.810838      6.074670
  C      15.240191    -13.317062      7.275220
  N      14.418835    -14.031223      8.022137
  N      16.502308    -13.204427      7.652029
  H      13.453745    -14.682279      4.845952
  H      12.044521    -13.692789      4.458599
  H      12.257928    -14.333983      6.075789
  H      13.591545    -11.981229      4.721163
  H      12.929770    -12.071561      6.357278
  H      15.553470    -12.185639      5.676382
  H      14.743367    -14.341360      8.966263
  H      13.448415    -14.136318      7.796187
  H      16.744565    -13.418110      8.667069
  H      17.101565    -12.548978      7.179745
  C       8.412999    -16.813004     15.233001
  C       9.872119    -16.982695     15.667598
  N      10.425794    -15.782574     16.254379
  C      10.634588    -14.654266     15.518431
  N      10.450249    -14.644568     14.218252
  N      10.976617    -13.529345     16.123101
  H       7.736528    -17.001581     16.066623
  H       8.167890    -17.521786     14.445068
  H       8.239300    -15.807081     14.859619
  H       9.962921    -17.784373     16.401985
  H      10.493225    -17.255491     14.809004
  H      10.338171    -15.669009     17.250139
  H      10.914879    -13.829994     13.643619
  H      10.298058    -15.504760     13.726993
  H      11.532754    -12.791487     15.533454
  H      11.189264    -13.558869     17.106676
  C      13.998001     -9.220000      7.724999
  O      15.174664     -9.918561      8.011888
  C      14.281423     -7.793174      7.251383
  H      13.329681     -9.174595      8.584877
  H      13.500923     -9.792824      6.929073
  H      15.547071     -9.537517      8.833376
  H      14.827435     -7.263367      8.027331
  H      14.893966     -7.810492      6.352959
  H      13.356977     -7.263268      7.038851
  C      14.518001     -6.670000     12.632998
  S      13.399169     -8.026072     13.113269
  H      14.324364     -6.427596     11.588087
  H      15.561495     -6.982885     12.721722
  H      14.306529     -5.805332     13.257159
  H      14.104896     -8.444747     14.162367
  C      20.972000     -6.019000     10.963999
  C      20.042093     -6.992697     11.690520
  C      18.583617     -7.068935     11.088983
  O      17.656088     -7.098917     11.927210
  O      18.496334     -7.113809      9.859438
  H      20.586780     -5.000259     11.007275
  H      21.046545     -6.304515      9.917580
  H      21.970168     -6.036531     11.405438
  H      20.456800     -8.002752     11.612526
  H      19.955493     -6.732989     12.750378
  C      19.312999    -20.521999      7.175001
  C      18.138997    -19.622494      7.465086
  C      16.874582    -19.950462      6.988530
  C      18.269134    -18.463760      8.225673
  C      15.770956    -19.172306      7.276624
  C      17.170737    -17.674583      8.522105
  C      15.907126    -18.031519      8.063133
  O      14.798708    -17.306285      8.356402
  H      19.761228    -20.307815      6.204785
  H      18.997151    -21.563585      7.171356
  H      20.084207    -20.393643      7.931669
  H      16.748454    -20.842384      6.389805
  H      19.240642    -18.177941      8.602451
  H      14.790844    -19.441953      6.913472
  H      17.241004    -16.771542      9.114683
  H      15.000838    -16.612060      9.004066
  C      19.522001    -11.465000      7.842998
  C      18.921165    -10.679663      9.015498
  N      19.045057    -11.401945     10.254148
  C      20.128871    -11.311726     11.060926
  O      21.097868    -10.608107     10.868000
  N      20.042844    -12.159827     12.162482
  H      19.317472    -10.958064      6.899981
  H      19.119348    -12.474983      7.814378
  H      20.599878    -11.539866      7.960825
  H      19.411843     -9.711792      9.132943
  H      17.865138    -10.523431      8.792817
  H      18.432598    -12.198692     10.387336
  H      20.684374    -11.902596     12.899020
  H      19.106954    -12.361882     12.497998
114
Coordinates from ORCA-job 01_xtb_cit_react E -175.293450366620
  C      16.139257    -11.178818     12.515697
  C      14.887707    -11.308481     13.323145
  C      13.761946    -11.762412     12.745300
  C      13.689545    -11.955957     11.314705
  C      14.682233    -11.581547     10.515166
  C      15.879773    -10.844155     11.042003
  C      12.601217    -12.244886     13.546563
  O      12.555998    -12.019492     14.775188
  O      11.764775    -12.949202     12.914249
  O      15.668905     -9.466955     10.777145
  O      16.878795    -12.422188     12.618996
  C      16.192342    -13.582355     12.305054
  C      16.219935    -14.019264     10.857502
  O      17.166116    -13.624459     10.146255
  O      15.287494    -14.758627     10.450257
  C      15.573392    -14.308261     13.231341
  H      16.826843    -10.435840     12.935147
  H      14.954179    -11.200609     14.393093
  H      12.805214    -12.430945     10.923159
  H      14.622933    -11.715641      9.448504
  H      16.770159    -11.146692     10.480202
  H      16.047113     -8.897164     11.462927
  H      15.095853    -15.237422     12.968286
  H      15.540987    -14.009244     14.264909
  O      12.511853    -15.131749     11.113685
  H      13.458504    -15.032254     10.930499
  H      12.269641    -14.433902     11.736574
  C      12.785000    -13.909001      5.224001
  C      13.511225    -12.620237      5.620218
  N      14.874839    -12.811154      6.084302
  C      15.241413    -13.320379      7.282894
  N      14.428933    -14.057726      8.016957
  N      16.495359    -13.185663      7.671886
  H      13.453745    -14.682279      4.845952
  H      12.052743    -13.683531      4.453394
  H      12.247649    -14.338109      6.067426
  H      13.583561    -11.973572      4.745112
  H      12.926718    -12.089226      6.382757
  H      15.543073    -12.156785      5.707371
  H      14.748624    -14.354358      8.967321
  H      13.464282    -14.184423      7.779501
  H      16.747609    -13.419316      8.678616
  H      17.091312    -12.526762      7.206029
  C       8.412999    -16.813004     15.233001
  C       9.873215    -16.973851     15.671079
  N      10.416655    -15.771851     16.262259
  C      10.625685    -14.644421     15.526750
  N      10.442084    -14.637276     14.227673
  N      10.971813    -13.520519     16.130955
  H       7.736528    -17.001581     16.066623
  H       8.171503    -17.524966     14.446418
  H       8.236176    -15.807708     14.857192
  H       9.965326    -17.777694     16.402223
  H      10.498962    -17.238278     14.812609
  H      10.330130    -15.657903     17.260018
  H      10.918038    -13.823622     13.657175
  H      10.310601    -15.503883     13.731204
  H      11.538760    -12.782723     15.545124
  H      11.182163    -13.548617     17.113916
  C      13.998001     -9.220000      7.724999
  O      15.158709     -9.942865      8.020151
  C      14.302890     -7.792611      7.270879
  H      13.329681     -9.174595      8.584877
  H      13.496559     -9.775078      6.920848
  H      15.536109     -9.590755      8.849170
  H      14.853124     -7.280989      8.055600
  H      14.920483     -7.806614      6.374977
  H      13.385103     -7.249285      7.062933
  C      14.518001     -6.670000     12.632998
  S      13.409979     -8.026609     13.128160
  H      14.324364     -6.427596     11.588086
  H      15.554517     -7.009604     12.710708
  H      14.315854     -5.804495     13.260873
  H      14.119994     -8.400702     14.187194
  C      20.972000     -6.019000     10.963999
  C      20.048565     -7.006252     11.681952
  C      18.584559     -7.082474     11.077330
  O      17.660263     -7.152920     11.911092
  O      18.498317     -7.103336      9.847612
  H      20.586780     -5.000259     11.007275
  H      21.052271     -6.300220      9.917413
  H      21.969184     -6.036359     11.408048
  H      20.469683     -8.011963     11.589606
  H      19.966847     -6.760648     12.745647
  C      19.312999    -20.521999      7.175001
  C      18.147944    -19.612041      7.468584
  C      16.881498    -19.923143      6.984089
  C      18.285808    -18.460621      8.237143
  C      15.784802    -19.135950      7.273923
  C      17.195000    -17.661553      8.535063
  C      15.929081    -18.001627      8.069436
  O      14.823829    -17.271090      8.361337
  H      19.761228    -20.307815      6.204785
  H      18.985843    -21.559871      7.168639
  H      20.085848    -20.402973      7.931467
  H      16.748210    -20.809151      6.377900
  H      19.259064    -18.186824      8.619618
  H      14.802689    -19.392489      6.906098
  H      17.275659    -16.765691      9.135158
  H      15.020291    -16.573979      9.008406
  C      19.522001    -11.465000      7.842998
  C      18.924311    -10.682165      9.009738
  N      19.054251    -11.406248     10.248421
  C      20.136349    -11.301012     11.056084
  O      21.105478    -10.593602     10.858102
  N      20.059815    -12.157034     12.154641
  H      19.317472    -10.958064      6.899981
  H      19.114958    -12.473223      7.814576
  H      20.599153    -11.538109      7.966797
  H      19.409778     -9.712185      9.121677
  H      17.863092    -10.528772      8.799509
  H      18.448200    -12.208243     10.384608
  H      20.691235    -11.892567     12.897789
  H      19.125790    -12.361133     12.486116
114
Coordinates from ORCA-job 01_xtb_cit_react E -175.294992692470
  C      16.155600    -11.168122     12.507703
  C      14.903876    -11.294783     13.318615
  C      13.775222    -11.745539     12.743823
  C      13.702727    -11.943537     11.312947
  C      14.695743    -11.577178     10.510964
  C      15.898654    -10.841213     11.031472
  C      12.611101    -12.225058     13.544746
  O      12.560593    -11.996349     14.772363
  O      11.775203    -12.929835     12.911250
  O      15.702485     -9.463049     10.749452
  O      16.892975    -12.414926     12.618055
  C      16.205992    -13.576308     12.310743
  C      16.234877    -14.021300     10.864697
  O      17.184769    -13.630683     10.154272
  O      15.298952    -14.755040     10.455111
  C      15.594302    -14.299930     13.242826
  H      16.846697    -10.427930     12.925856
  H      14.971702    -11.184985     14.384715
  H      12.816778    -12.416835     10.920697
  H      14.634676    -11.720949      9.445070
  H      16.784281    -11.160871     10.473050
  H      16.124132     -8.884657     11.406401
  H      15.118737    -15.230828     12.986865
  H      15.563821    -13.988456     14.273294
  O      12.533522    -15.137585     11.151531
  H      13.475592    -15.030742     10.953122
  H      12.287371    -14.431947     11.763525
  C      12.785000    -13.909001      5.224001
  C      13.506781    -12.621819      5.635755
  N      14.874772    -12.807717      6.091524
  C      15.244088    -13.320781      7.288149
  N      14.442931    -14.082359      8.010765
  N      16.490802    -13.160966      7.689017
  H      13.453745    -14.682279      4.845952
  H      12.060202    -13.676662      4.448114
  H      12.238010    -14.343091      6.058703
  H      13.570733    -11.963727      4.768549
  H      12.921560    -12.106939      6.408444
  H      15.529837    -12.124030      5.733907
  H      14.756349    -14.367089      8.967623
  H      13.483479    -14.228771      7.762515
  H      16.753363    -13.410503      8.688549
  H      17.082909    -12.490561      7.231929
  C       8.412999    -16.813004     15.233001
  C       9.875341    -16.948000     15.671514
  N      10.405491    -15.735520     16.255418
  C      10.610896    -14.607782     15.516348
  N      10.422865    -14.599881     14.218124
  N      10.961545    -13.485776     16.115573
  H       7.736528    -17.001581     16.066623
  H       8.183611    -17.533054     14.453303
  H       8.225374    -15.815590     14.848229
  H       9.976741    -17.747662     16.406824
  H      10.503678    -17.208264     14.813876
  H      10.322436    -15.618938     17.253874
  H      10.907429    -13.788657     13.649902
  H      10.299677    -15.465730     13.720713
  H      11.532913    -12.747402     15.534590
  H      11.176393    -13.515708     17.098797
  C      13.998001     -9.220000      7.724999
  O      15.151133     -9.974349      7.998758
  C      14.329208     -7.791383      7.294656
  H      13.329681     -9.174595      8.584877
  H      13.483930     -9.751266      6.912829
  H      15.533514     -9.638172      8.836013
  H      14.892771     -7.302509      8.085316
  H      14.941658     -7.799147      6.395526
  H      13.417269     -7.230986      7.103222
  C      14.518001     -6.670000     12.632998
  S      13.413220     -8.027205     13.122367
  H      14.324364     -6.427596     11.588087
  H      15.549212     -7.025251     12.695689
  H      14.329356     -5.808218     13.266585
  H      14.132782     -8.398117     14.175603
  C      20.972000     -6.019000     10.963999
  C      20.040684     -7.008589     11.673134
  C      18.581186     -7.092905     11.047658
  O      17.648087     -7.201734     11.869223
  O      18.512001     -7.084796      9.815333
  H      20.586780     -5.000259     11.007275
  H      21.057038     -6.299342      9.917008
  H      21.966429     -6.039602     11.414540
  H      20.463923     -8.013801     11.589909
  H      19.947163     -6.758952     12.734676
  C      19.312999    -20.521999      7.175001
  C      18.157733    -19.600348      7.474098
  C      16.889022    -19.892467      6.982785
  C      18.305117    -18.456804      8.252023
  C      15.800529    -19.095030      7.275674
  C      17.223027    -17.646974      8.552931
  C      15.954559    -17.968387      8.081299
  O      14.854197    -17.231741      8.374244
  H      19.761228    -20.307815      6.204785
  H      18.974151    -21.556006      7.165401
  H      20.088306    -20.414114      7.930642
  H      16.747763    -20.770973      6.367453
  H      19.280249    -18.196694      8.639912
  H      14.817054    -19.335996      6.902058
  H      17.313175    -16.757286      9.160604
  H      15.045993    -16.533674      9.022508
  C      19.522001    -11.465000      7.842998
  C      18.928482    -10.678887      9.004605
  N      19.062395    -11.400612     10.245424
  C      20.140050    -11.281852     11.057058
  O      21.101394    -10.565342     10.858495
  N      20.067023    -12.137947     12.156666
  H      19.317472    -10.958064      6.899981
  H      19.109666    -12.470608      7.816276
  H      20.599780    -11.539153      7.970676
  H      19.410452     -9.705544      9.110251
  H      17.864193    -10.528122      8.800128
  H      18.461704    -12.206506     10.383977
  H      20.692735    -11.870741     12.903274
  H      19.132109    -12.341010     12.482980
114
Coordinates from ORCA-job 01_xtb_cit_react E -175.297357497410
  C      16.173350    -11.143949     12.501447
  C      14.924509    -11.267578     13.319346
  C      13.791776    -11.712820     12.750263
  C      13.714353    -11.909938     11.317268
  C      14.704735    -11.549925     10.510190
  C      15.918089    -10.819781     11.023951
  C      12.632438    -12.199168     13.554323
  O      12.585218    -11.979889     14.783771
  O      11.796419    -12.902392     12.919440
  O      15.735895     -9.440659     10.722702
  O      16.907404    -12.396537     12.614055
  C      16.218175    -13.554640     12.311639
  C      16.248761    -14.009573     10.868691
  O      17.202259    -13.624357     10.155925
  O      15.310309    -14.738623     10.456897
  C      15.610716    -14.273415     13.249852
  H      16.873065    -10.412992     12.920458
  H      14.994179    -11.147338     14.384357
  H      12.821321    -12.374505     10.926856
  H      14.638051    -11.695459      9.442967
  H      16.801884    -11.160792     10.469779
  H      16.206254     -8.857500     11.341616
  H      15.132254    -15.200526     12.996637
  H      15.577782    -13.943635     14.276703
  O      12.553745    -15.128145     11.191754
  H      13.491295    -15.016561     10.978342
  H      12.306093    -14.415565     11.794902
  C      12.785000    -13.909001      5.224001
  C      13.494723    -12.620170      5.648964
  N      14.865905    -12.794812      6.098246
  C      15.241514    -13.309376      7.291378
  N      14.449024    -14.082951      8.009066
  N      16.483822    -13.129621      7.696055
  H      13.453745    -14.682279      4.845952
  H      12.066335    -13.674870      4.442313
  H      12.230226    -14.349966      6.049845
  H      13.546944    -11.951037      4.789115
  H      12.901833    -12.124682      6.427254
  H      15.513461    -12.115935      5.734152
  H      14.761737    -14.365163      8.968726
  H      13.492545    -14.241099      7.754066
  H      16.764092    -13.385663      8.688451
  H      17.072526    -12.450627      7.242741
  C       8.412999    -16.813004     15.233001
  C       9.877078    -16.933191     15.669101
  N      10.406611    -15.719864     16.251449
  C      10.623417    -14.589035     15.516903
  N      10.434787    -14.572110     14.218447
  N      10.987330    -13.472228     16.118063
  H       7.736528    -17.001581     16.066623
  H       8.194428    -17.541469     14.458151
  H       8.217795    -15.821327     14.837876
  H       9.984836    -17.733577     16.404571
  H      10.502170    -17.190209     14.809374
  H      10.330675    -15.612317     17.247843
  H      10.922240    -13.759368     13.657408
  H      10.308472    -15.432670     13.713547
  H      11.562221    -12.731770     15.544232
  H      11.199576    -13.507309     17.102810
  C      13.998001     -9.220000      7.724999
  O      15.138887    -10.007001      7.986292
  C      14.368218     -7.794402      7.320925
  H      13.329681     -9.174595      8.584877
  H      13.473507     -9.721293      6.902084
  H      15.525154     -9.675465      8.819496
  H      14.941679     -7.328239      8.120188
  H      14.982530     -7.797114      6.423878
  H      13.462972     -7.216555      7.141228
  C      14.518001     -6.670000     12.632998
  S      13.403278     -8.032298     13.090425
  H      14.324364     -6.427596     11.588086
  H      15.540234     -7.040306     12.669095
  H      14.355906     -5.815982     13.278916
  H      14.128864     -8.443231     14.121560
  C      20.972000     -6.019000     10.963999
  C      20.039975     -7.004169     11.681977
  C      18.583602     -7.122270     11.051103
  O      17.648142     -7.284609     11.865594
  O      18.507306     -7.085974      9.817595
  H      20.586780     -5.000259     11.007275
  H      21.039035     -6.306153      9.916033
  H      21.971026     -6.041631     11.403538
  H      20.470618     -8.006890     11.619554
  H      19.940199     -6.734128     12.736969
  C      19.312999    -20.521999      7.175001
  C      18.167252    -19.590665      7.479942
  C      16.895435    -19.866195      6.986758
  C      18.326231    -18.454834      8.265103
  C      15.815574    -19.058612      7.283999
  C      17.254209    -17.635358      8.570345
  C      15.981847    -17.938483      8.097117
  O      14.888703    -17.194241      8.391481
  H      19.761228    -20.307815      6.204785
  H      18.964569    -21.552843      7.162664
  H      20.091082    -20.424523      7.929367
  H      16.745425    -20.738715      6.365109
  H      19.303987    -18.207597      8.655262
  H      14.829826    -19.285141      6.908512
  H      17.353082    -16.749130      9.181204
  H      15.075258    -16.493394      9.039027
  C      19.522001    -11.465000      7.842998
  C      18.930831    -10.677738      8.993957
  N      19.069957    -11.391920     10.243844
  C      20.143951    -11.260265     11.058839
  O      21.104898    -10.542840     10.851242
  N      20.062644    -12.104737     12.167322
  H      19.317472    -10.958064      6.899981
  H      19.106539    -12.469617      7.817345
  H      20.601428    -11.538170      7.975804
  H      19.408968     -9.700917      9.090985
  H      17.860279    -10.528148      8.798356
  H      18.474633    -12.200170     10.386285
  H      20.683526    -11.840113     12.916884
  H      19.122066    -12.308997     12.478541
114
Coordinates from ORCA-job 01_xtb_cit_react E -175.300209512900
  C      16.195546    -11.104111     12.500051
  C      14.952022    -11.228344     13.324965
  C      13.816261    -11.675004     12.763656
  C      13.730545    -11.868813     11.330713
  C      14.716496    -11.509708     10.518065
  C      15.938315    -10.783200     11.021944
  C      12.663383    -12.170882     13.572812
  O      12.622376    -11.964111     14.804564
  O      11.826449    -12.871312     12.937483
  O      15.770383     -9.405866     10.699839
  O      16.927072    -12.360443     12.613680
  C      16.233207    -13.515274     12.313657
  C      16.262780    -13.982062     10.875978
  O      17.218127    -13.606996     10.159333
  O      15.323578    -14.710928     10.466349
  C      15.621464    -14.227650     13.256471
  H      16.901564    -10.378554     12.918201
  H      15.026988    -11.096356     14.391259
  H      12.829137    -12.325469     10.946405
  H      14.644836    -11.660571      9.450400
  H      16.820398    -11.147674     10.475896
  H      16.293786     -8.813390     11.273566
  H      15.129363    -15.147596     13.002932
  H      15.597538    -13.890808     14.276721
  O      12.577469    -15.113155     11.241941
  H      13.509886    -14.996442     11.014841
  H      12.330649    -14.393339     11.836142
  C      12.785000    -13.909001      5.224001
  C      13.482352    -12.617737      5.664906
  N      14.855969    -12.777702      6.110950
  C      15.238362    -13.287712      7.303730
  N      14.455707    -14.071597      8.020247
  N      16.479477    -13.089557      7.705300
  H      13.453745    -14.682279      4.845952
  H      12.071359    -13.674992      4.437005
  H      12.223522    -14.358263      6.041010
  H      13.523700    -11.935672      4.814366
  H      12.881327    -12.140870      6.447721
  H      15.494027    -12.079647      5.748901
  H      14.769524    -14.353943      8.980151
  H      13.501100    -14.238829      7.761649
  H      16.780494    -13.347239      8.689687
  H      17.059612    -12.404253      7.250969
  C       8.412999    -16.813004     15.233001
  C       9.877636    -16.916857     15.669609
  N      10.403095    -15.703164     16.258528
  C      10.642832    -14.573905     15.531930
  N      10.460315    -14.548184     14.231275
  N      11.022247    -13.465173     16.137991
  H       7.736528    -17.001581     16.066623
  H       8.208046    -17.551493     14.464093
  H       8.208315    -15.828680     14.825618
  H       9.991272    -17.717914     16.402961
  H      10.504441    -17.168916     14.808179
  H      10.313645    -15.596192     17.256710
  H      10.946547    -13.734926     13.678520
  H      10.319915    -15.399485     13.720243
  H      11.600644    -12.724035     15.569038
  H      11.223727    -13.504048     17.124668
  C      13.998001     -9.220000      7.724999
  O      15.125796    -10.032845      7.977067
  C      14.407148     -7.800152      7.342801
  H      13.329681     -9.174595      8.584877
  H      13.462385     -9.692310      6.892553
  H      15.515833     -9.700639      8.804555
  H      14.992357     -7.355580      8.147712
  H      15.020866     -7.801942      6.445788
  H      13.510783     -7.202433      7.174735
  C      14.518001     -6.670000     12.632998
  S      13.377065     -8.025647     13.045593
  H      14.324364     -6.427596     11.588087
  H      15.536219     -7.051779     12.645074
  H      14.383619     -5.822875     13.289455
  H      14.109606     -8.515659     14.037952
  C      20.972000     -6.019000     10.963999
  C      20.028183     -6.996050     11.683839
  C      18.585710     -7.159959     11.044717
  O      17.644547     -7.386294     11.852181
  O      18.502806     -7.094432      9.814244
  H      20.586780     -5.000259     11.007275
  H      21.029173     -6.310512      9.915165
  H      21.970894     -6.045310     11.401473
  H      20.467382     -7.995717     11.651890
  H      19.908403     -6.702001     12.729435
  C      19.312999    -20.521999      7.175001
  C      18.177698    -19.579380      7.488369
  C      16.901923    -19.837497      6.996807
  C      18.351350    -18.449213      8.279667
  C      15.832182    -19.018924      7.300407
  C      17.289137    -17.619520      8.592068
  C      16.012304    -17.904931      8.119605
  O      14.926949    -17.153739      8.418877
  H      19.761228    -20.307815      6.204785
  H      18.954763    -21.549607      7.158750
  H      20.094707    -20.437285      7.927312
  H      16.740979    -20.704620      6.370543
  H      19.332909    -18.214440      8.668396
  H      14.843152    -19.232026      6.925860
  H      17.396370    -16.734688      9.205664
  H      15.109760    -16.451708      9.066710
  C      19.522001    -11.465000      7.842998
  C      18.933420    -10.669547      8.989392
  N      19.081272    -11.371367     10.248022
  C      20.149913    -11.224777     11.064747
  O      21.096659    -10.499476     10.850677
  N      20.062834    -12.043853     12.186398
  H      19.317472    -10.958064      6.899981
  H      19.105153    -12.470410      7.819543
  H      20.602612    -11.540705      7.972978
  H      19.409235     -9.691316      9.079498
  H      17.860344    -10.520782      8.802032
  H      18.491230    -12.181803     10.395994
  H      20.682713    -11.777862     12.934033
  H      19.123371    -12.255536     12.484592
114
Coordinates from ORCA-job 01_xtb_cit_react E -175.303485268190
  C      16.218653    -11.053798     12.513645
  C      14.981117    -11.176082     13.347531
  C      13.843974    -11.628674     12.795510
  C      13.749834    -11.821371     11.361530
  C      14.730067    -11.457323     10.542268
  C      15.957438    -10.735188     11.034634
  C      12.698840    -12.138679     13.609876
  O      12.664994    -11.949946     14.845106
  O      11.862947    -12.836378     12.972843
  O      15.803738     -9.363485     10.695928
  O      16.946148    -12.313916     12.622733
  C      16.247370    -13.465371     12.319631
  C      16.275824    -13.942412     10.886519
  O      17.231051    -13.579515     10.165604
  O      15.337682    -14.675752     10.481195
  C      15.631925    -14.172542     13.261634
  H      16.928858    -10.328661     12.926660
  H      15.065592    -11.037675     14.417721
  H      12.841976    -12.273919     10.985467
  H      14.650034    -11.612301      9.475870
  H      16.838058    -11.120058     10.496593
  H      16.381017     -8.761469     11.220646
  H      15.130692    -15.085604     13.002612
  H      15.604785    -13.834692     14.281568
  O      12.604481    -15.093941     11.299910
  H      13.532814    -14.972662     11.060878
  H      12.361727    -14.367166     11.888316
  C      12.785000    -13.909001      5.224001
  C      13.471434    -12.615451      5.677606
  N      14.844553    -12.763885      6.126424
  C      15.234947    -13.263463      7.321798
  N      14.459728    -14.050287      8.042002
  N      16.476971    -13.050272      7.715502
  H      13.453745    -14.682279      4.845952
  H      12.073647    -13.677618      4.433909
  H      12.220922    -14.364892      6.036003
  H      13.506445    -11.923050      4.834878
  H      12.861498    -12.151203      6.461551
  H      15.480284    -12.088391      5.745465
  H      14.777334    -14.335363      8.998805
  H      13.506342    -14.223517      7.782845
  H      16.795859    -13.306131      8.693424
  H      17.047340    -12.359556      7.256243
  C       8.412999    -16.813004     15.233001
  C       9.877481    -16.909582     15.669437
  N      10.401825    -15.699210     16.270544
  C      10.670736    -14.570664     15.557208
  N      10.497859    -14.531379     14.254122
  N      11.058617    -13.466289     16.175431
  H       7.736528    -17.001581     16.066623
  H       8.216737    -17.556537     14.468588
  H       8.202725    -15.834419     14.818476
  H       9.996554    -17.714285     16.397722
  H      10.505584    -17.154857     14.806009
  H      10.300210    -15.598846     17.268809
  H      10.982284    -13.717281     13.714542
  H      10.333867    -15.370214     13.736212
  H      11.642097    -12.728610     15.611543
  H      11.239363    -13.508434     17.164325
  C      13.998001     -9.220000      7.724999
  O      15.109408    -10.051554      7.976064
  C      14.442455     -7.805124      7.364777
  H      13.329681     -9.174595      8.584877
  H      13.455373     -9.666160      6.882061
  H      15.504815     -9.713852      8.797312
  H      15.032945     -7.382708      8.178148
  H      15.060186     -7.807519      6.470480
  H      13.560510     -7.184766      7.199873
  C      14.518001     -6.670000     12.632998
  S      13.334747     -7.999743     13.006480
  H      14.324364     -6.427596     11.588087
  H      15.532937     -7.068420     12.625094
  H      14.412993     -5.825277     13.294478
  H      14.064169     -8.574563     13.955885
  C      20.972000     -6.019000     10.963999
  C      20.019198     -6.999045     11.673834
  C      18.596127     -7.214156     11.036556
  O      17.660533     -7.518989     11.831991
  O      18.488357     -7.110679      9.811995
  H      20.586780     -5.000259     11.007275
  H      21.033630     -6.307195      9.914464
  H      21.965639     -6.047467     11.408450
  H      20.475264     -7.992301     11.657117
  H      19.878575     -6.698554     12.714591
  C      19.312999    -20.521999      7.175001
  C      18.187591    -19.569165      7.499300
  C      16.907207    -19.812785      7.014200
  C      18.376441    -18.442665      8.295441
  C      15.847190    -18.985319      7.327128
  C      17.322334    -17.604189      8.617528
  C      16.040663    -17.876166      8.149816
  O      14.962747    -17.118882      8.455633
  H      19.761228    -20.307815      6.204785
  H      18.945976    -21.546587      7.153808
  H      20.098506    -20.450665      7.924804
  H      16.734808    -20.675720      6.385367
  H      19.362260    -18.218184      8.679071
  H      14.854325    -19.188398      6.956684
  H      17.437653    -16.718883      9.232084
  H      15.144883    -16.416634      9.103740
  C      19.522001    -11.465000      7.842998
  C      18.939581    -10.658469      8.993597
  N      19.098041    -11.342032     10.260674
  C      20.165964    -11.184886     11.075842
  O      21.123293    -10.473131     10.844966
  N      20.067600    -11.971032     12.214443
  H      19.317472    -10.958064      6.899981
  H      19.105878    -12.471547      7.820722
  H      20.602599    -11.547646      7.960701
  H      19.419392     -9.682890      9.074601
  H      17.866576    -10.508837      8.815204
  H      18.512223    -12.154225     10.415149
  H      20.687174    -11.696506     12.958433
  H      19.126664    -12.188417     12.499954
114
Coordinates from ORCA-job 01_xtb_cit_react E -175.306493111200
  C      16.238216    -11.007301     12.535023
  C      15.006042    -11.127530     13.375975
  C      13.869774    -11.589731     12.832620
  C      13.769045    -11.783321     11.399794
  C      14.742558    -11.410366     10.575397
  C      15.972732    -10.692352     11.054744
  C      12.730515    -12.112825     13.648906
  O      12.704033    -11.942817     14.887215
  O      11.895586    -12.806949     13.008774
  O      15.828907     -9.330284     10.707066
  O      16.959471    -12.269931     12.635906
  C      16.253253    -13.417478     12.325524
  C      16.285549    -13.901517     10.894817
  O      17.239239    -13.548684     10.170495
  O      15.351505    -14.645202     10.495667
  C      15.617367    -14.117500     13.263625
  H      16.947143    -10.276252     12.938956
  H      15.101982    -10.993252     14.449393
  H      12.861048    -12.239692     11.032747
  H      14.654601    -11.569536      9.513378
  H      16.850751    -11.091242     10.522876
  H      16.455970     -8.716737     11.187519
  H      15.108289    -15.024939     12.996446
  H      15.586929    -13.789953     14.286191
  O      12.630074    -15.081696     11.354197
  H      13.557096    -14.956118     11.105890
  H      12.393556    -14.348081     11.938631
  C      12.785000    -13.909001      5.224001
  C      13.467223    -12.615671      5.685413
  N      14.839223    -12.755683      6.137923
  C      15.235153    -13.240668      7.339174
  N      14.466311    -14.030332      8.064345
  N      16.478713    -13.016670      7.723272
  H      13.453745    -14.682279      4.845952
  H      12.072983    -13.679030      4.434591
  H      12.222869    -14.367302      6.036522
  H      13.499204    -11.916237      4.848717
  H      12.853256    -12.157420      6.469995
  H      15.471090    -12.072954      5.754109
  H      14.787319    -14.319488      9.017197
  H      13.514022    -14.207912      7.805946
  H      16.806718    -13.271503      8.696760
  H      17.036253    -12.317471      7.259616
  C       8.412999    -16.813004     15.233001
  C       9.878720    -16.902704     15.672955
  N      10.399904    -15.695941     16.282418
  C      10.691381    -14.568343     15.579216
  N      10.526966    -14.517711     14.274296
  N      11.088610    -13.471061     16.209696
  H       7.736528    -17.001581     16.066623
  H       8.223226    -17.570978     14.475375
  H       8.192198    -15.837715     14.805582
  H      10.005984    -17.709695     16.397963
  H      10.507905    -17.141509     14.809392
  H      10.299729    -15.607596     17.277427
  H      11.014602    -13.704959     13.743931
  H      10.347701    -15.351892     13.751803
  H      11.677214    -12.740069     15.650040
  H      11.259839    -13.522429     17.199462
  C      13.998001     -9.220000      7.724999
  O      15.091399    -10.058246      7.988498
  C      14.464599     -7.806877      7.382495
  H      13.329681     -9.174595      8.584877
  H      13.452355     -9.648801      6.874627
  H      15.494356     -9.715400      8.802839
  H      15.053079     -7.404660      8.205848
  H      15.090166     -7.812160      6.492772
  H      13.601560     -7.164186      7.211742
  C      14.518001     -6.670000     12.632998
  S      13.292248     -7.959537     12.999046
  H      14.324364     -6.427596     11.588087
  H      15.533080     -7.083173     12.617057
  H      14.432786     -5.817748     13.290255
  H      14.013869     -8.607102     13.909052
  C      20.972000     -6.019000     10.963999
  C      20.004917     -7.006532     11.651106
  C      18.606365     -7.261482     11.001632
  O      17.686428     -7.648097     11.789639
  O      18.475312     -7.118533      9.786943
  H      20.586780     -5.000259     11.007275
  H      21.060858     -6.297414      9.915632
  H      21.952308     -6.051044     11.433720
  H      20.479308     -7.993358     11.648093
  H      19.835657     -6.711138     12.690297
  C      19.312999    -20.521999      7.175001
  C      18.194943    -19.563271      7.507536
  C      16.910525    -19.799002      7.031322
  C      18.395985    -18.438144      8.304582
  C      15.857731    -18.966315      7.353008
  C      17.347450    -17.594955      8.636110
  C      16.061629    -17.859467      8.175396
  O      14.989774    -17.096993      8.488931
  H      19.761228    -20.307815      6.204785
  H      18.939624    -21.544186      7.149421
  H      20.100714    -20.460085      7.923216
  H      16.728542    -20.660926      6.403833
  H      19.385114    -18.220017      8.681506
  H      14.861352    -19.165084      6.988548
  H      17.470197    -16.710430      9.250384
  H      15.176955    -16.398193      9.139762
  C      19.522001    -11.465000      7.842998
  C      18.948361    -10.646858      9.002291
  N      19.116340    -11.315203     10.272479
  C      20.185449    -11.153163     11.085565
  O      21.142508    -10.447213     10.849650
  N      20.076899    -11.906873     12.241445
  H      19.317472    -10.958064      6.899981
  H      19.107354    -12.471785      7.822240
  H      20.600701    -11.555811      7.945642
  H      19.436879     -9.675841      9.077120
  H      17.878178    -10.495399      8.832152
  H      18.531759    -12.128809     10.432246
  H      20.693507    -11.614814     12.981665
  H      19.133319    -12.128534     12.522118
114
Coordinates from ORCA-job 01_xtb_cit_react E -175.308843805660
  C      16.254427    -10.979314     12.546723
  C      15.025811    -11.103644     13.389214
  C      13.893457    -11.579458     12.849934
  C      13.792173    -11.773885     11.419124
  C      14.762100    -11.391599     10.590748
  C      15.989686    -10.670443     11.061782
  C      12.755727    -12.110729     13.665988
  O      12.727748    -11.945142     14.905909
  O      11.921090    -12.804094     13.025139
  O      15.852095     -9.318871     10.711734
  O      16.972559    -12.241068     12.642555
  C      16.263698    -13.388331     12.328041
  C      16.294695    -13.874652     10.898151
  O      17.246472    -13.527766     10.171472
  O      15.363583    -14.627561     10.506625
  C      15.625837    -14.087795     13.262149
  H      16.956361    -10.238744     12.943169
  H      15.129018    -10.979605     14.463121
  H      12.888310    -12.240914     11.058803
  H      14.667049    -11.554121      9.531514
  H      16.861658    -11.075739     10.538125
  H      16.519150     -8.698522     11.164122
  H      15.116498    -14.996752     12.993312
  H      15.590295    -13.768392     14.287579
  O      12.650070    -15.086531     11.383860
  H      13.576104    -14.955434     11.133222
  H      12.418715    -14.349874     11.963699
  C      12.785000    -13.909001      5.224001
  C      13.469452    -12.617015      5.687004
  N      14.841637    -12.756385      6.139071
  C      15.241198    -13.225992      7.346932
  N      14.478320    -14.018967      8.075374
  N      16.482764    -12.991315      7.726426
  H      13.453745    -14.682279      4.845952
  H      12.071074    -13.677378      4.437706
  H      12.226715    -14.365157      6.040738
  H      13.500278    -11.914988      4.852695
  H      12.859953    -12.159832      6.476546
  H      15.471938    -12.077913      5.750938
  H      14.798542    -14.308626      9.027925
  H      13.527643    -14.201920      7.816787
  H      16.812017    -13.251507      8.697122
  H      17.025402    -12.285609      7.260092
  C       8.412999    -16.813004     15.233001
  C       9.876610    -16.897414     15.670359
  N      10.385171    -15.689065     16.288035
  C      10.692606    -14.567104     15.586087
  N      10.541466    -14.519244     14.279993
  N      11.092077    -13.473738     16.223468
  H       7.736528    -17.001581     16.066623
  H       8.223293    -17.572271     14.480471
  H       8.189872    -15.842122     14.805702
  H      10.009884    -17.707245     16.388043
  H      10.509446    -17.123027     14.804413
  H      10.268114    -15.589573     17.286083
  H      11.036584    -13.707483     13.748733
  H      10.354199    -15.353426     13.758133
  H      11.689366    -12.747710     15.662319
  H      11.253032    -13.524505     17.213493
  C      13.998001     -9.220000      7.724999
  O      15.088544    -10.063826      7.972685
  C      14.466782     -7.801208      7.400429
  H      13.329681     -9.174595      8.584877
  H      13.446604     -9.638380      6.872714
  H      15.498610     -9.718800      8.795047
  H      15.058809     -7.420092      8.228875
  H      15.087491     -7.801155      6.506614
  H      13.617494     -7.142012      7.237605
  C      14.518001     -6.670000     12.632998
  S      13.268053     -7.926268     13.025346
  H      14.324364     -6.427596     11.588086
  H      15.532011     -7.094268     12.619313
  H      14.440511     -5.804939     13.281109
  H      13.998153     -8.625610     13.898137
  C      20.972000     -6.019000     10.963999
  C      20.006148     -7.019276     11.631445
  C      18.627447     -7.295248     10.960996
  O      17.730133     -7.741708     11.738366
  O      18.488020     -7.110495      9.754078
  H      20.586780     -5.000259     11.007275
  H      21.092099     -6.287834      9.918762
  H      21.939907     -6.051775     11.457883
  H      20.498008     -7.999968     11.635671
  H      19.814431     -6.735306     12.670666
  C      19.312999    -20.521999      7.175001
  C      18.200244    -19.559633      7.510188
  C      16.913235    -19.791931      7.039718
  C      18.408701    -18.434298      8.305124
  C      15.864858    -18.956092      7.366073
  C      17.363664    -17.588659      8.642499
  C      16.075406    -17.849851      8.186757
  O      15.007135    -17.083876      8.505449
  H      19.761228    -20.307815      6.204785
  H      18.934147    -21.541999      7.146867
  H      20.101104    -20.464878      7.923048
  H      16.725178    -20.654319      6.414464
  H      19.400147    -18.219436      8.677155
  H      14.865994    -19.153645      7.006373
  H      17.493693    -16.707334      9.257792
  H      15.200595    -16.390502      9.160337
  C      19.522001    -11.465000      7.842998
  C      18.960957    -10.642056      9.009815
  N      19.132741    -11.298999     10.276922
  C      20.198952    -11.128977     11.091905
  O      21.170005    -10.435612     10.851139
  N      20.089997    -11.867791     12.256883
  H      19.317472    -10.958064      6.899981
  H      19.106730    -12.470605      7.823988
  H      20.599191    -11.561359      7.936794
  H      19.457578     -9.674045      9.076681
  H      17.896204    -10.485705      8.843850
  H      18.548425    -12.111919     10.440608
  H      20.703864    -11.559927     12.994457
  H      19.149549    -12.094349     12.539511
114
Coordinates from ORCA-job 01_xtb_cit_react E -175.310811218980
  C      16.266254    -10.970242     12.564404
  C      15.036836    -11.087710     13.411930
  C      13.903693    -11.569904     12.875640
  C      13.802910    -11.769925     11.445414
  C      14.767511    -11.387386     10.615815
  C      15.999897    -10.668094     11.076998
  C      12.764170    -12.102207     13.689876
  O      12.738683    -11.943795     14.930309
  O      11.927348    -12.793080     13.045441
  O      15.868434     -9.322733     10.717115
  O      16.979850    -12.235673     12.656062
  C      16.267863    -13.380975     12.340203
  C      16.304508    -13.866855     10.907784
  O      17.254375    -13.517088     10.179154
  O      15.375329    -14.624874     10.518638
  C      15.621084    -14.077722     13.272128
  H      16.969574    -10.226948     12.952065
  H      15.143747    -10.972419     14.481422
  H      12.905836    -12.245824     11.085385
  H      14.666205    -11.547422      9.559047
  H      16.869824    -11.080652     10.551432
  H      16.578873     -8.700163     11.128252
  H      15.117890    -14.990909     13.005608
  H      15.578559    -13.759324     14.301144
  O      12.666980    -15.095066     11.421610
  H      13.592454    -14.960591     11.164246
  H      12.435396    -14.351914     11.995762
  C      12.785000    -13.909001      5.224001
  C      13.474132    -12.620932      5.690880
  N      14.847653    -12.762840      6.140801
  C      15.246929    -13.225074      7.352435
  N      14.490133    -14.025317      8.079658
  N      16.483403    -12.976295      7.736873
  H      13.453745    -14.682279      4.845952
  H      12.073342    -13.669474      4.438588
  H      12.225319    -14.363101      6.041007
  H      13.505082    -11.917682      4.857744
  H      12.868627    -12.165827      6.485012
  H      15.474775    -12.070475      5.761508
  H      14.808326    -14.312505      9.035691
  H      13.542639    -14.218405      7.816975
  H      16.809671    -13.246728      8.705739
  H      17.014504    -12.255682      7.276502
  C       8.412999    -16.813004     15.233001
  C       9.878983    -16.889140     15.670562
  N      10.375935    -15.677455     16.287885
  C      10.683248    -14.551709     15.584167
  N      10.531401    -14.499548     14.281661
  N      11.093618    -13.467931     16.223270
  H       7.736528    -17.001581     16.066623
  H       8.222876    -17.577013     14.484201
  H       8.185681    -15.843153     14.803550
  H      10.020247    -17.701678     16.385411
  H      10.512361    -17.104166     14.803765
  H      10.273202    -15.584477     17.284366
  H      11.040723    -13.690242     13.749436
  H      10.344092    -15.336544     13.758642
  H      11.698287    -12.744872     15.668810
  H      11.270113    -13.532693     17.211854
  C      13.998001     -9.220000      7.724999
  O      15.073395    -10.076256      7.991913
  C      14.479775     -7.802348      7.410840
  H      13.329681     -9.174595      8.584877
  H      13.448803     -9.630244      6.868080
  H      15.489735     -9.736068      8.808121
  H      15.067460     -7.437806      8.247874
  H      15.111173     -7.807569      6.524329
  H      13.645701     -7.128577      7.240818
  C      14.518001     -6.670000     12.632998
  S      13.267862     -7.905800     13.078772
  H      14.324364     -6.427596     11.588087
  H      15.529102     -7.104084     12.623030
  H      14.445923     -5.793877     13.271366
  H      14.009154     -8.598970     13.940046
  C      20.972000     -6.019000     10.963999
  C      20.009895     -7.027448     11.622823
  C      18.640916     -7.317444     10.921163
  O      17.756817     -7.828665     11.673999
  O      18.509720     -7.083463      9.721636
  H      20.586780     -5.000259     11.007275
  H      21.113668     -6.284457      9.921862
  H      21.933062     -6.052052     11.473716
  H      20.514257     -8.002239     11.641992
  H      19.799853     -6.744702     12.659119
  C      19.312999    -20.521999      7.175001
  C      18.202704    -19.558962      7.513582
  C      16.912544    -19.789167      7.048107
  C      18.415039    -18.436015      8.308878
  C      15.866038    -18.952409      7.381019
  C      17.373237    -17.589454      8.652381
  C      16.081960    -17.847671      8.202749
  O      15.017287    -17.076510      8.525333
  H      19.761228    -20.307815      6.204785
  H      18.930132    -21.540353      7.145449
  H      20.101251    -20.467413      7.923029
  H      16.720222    -20.650496      6.422424
  H      19.408819    -18.223198      8.676815
  H      14.865336    -19.148174      7.025395
  H      17.512988    -16.713592      9.270547
  H      15.219538    -16.389170      9.184525
  C      19.522001    -11.465000      7.842998
  C      18.971787    -10.640673      9.007393
  N      19.142606    -11.299392     10.274321
  C      20.206525    -11.121867     11.092222
  O      21.173427    -10.424196     10.855637
  N      20.100408    -11.860273     12.262794
  H      19.317472    -10.958064      6.899981
  H      19.101284    -12.467568      7.829878
  H      20.600072    -11.563407      7.939519
  H      19.473260     -9.674381      9.069882
  H      17.902837    -10.481548      8.851571
  H      18.557242    -12.112972     10.441801
  H      20.703555    -11.535804     13.002739
  H      19.156655    -12.085639     12.548441
114
Coordinates from ORCA-job 01_xtb_cit_react E -175.310277647350
  C      16.240425    -11.025737     12.558160
  C      15.008268    -11.145853     13.392622
  C      13.885091    -11.631056     12.848479
  C      13.793931    -11.829184     11.417818
  C      14.760027    -11.438984     10.591081
  C      15.990371    -10.718539     11.064988
  C      12.746501    -12.154333     13.662440
  O      12.732052    -11.992456     14.902418
  O      11.902318    -12.838646     13.021672
  O      15.844190     -9.380950     10.733503
  O      16.959102    -12.284300     12.645966
  C      16.252506    -13.423510     12.319629
  C      16.292275    -13.887520     10.882557
  O      17.239874    -13.523455     10.152193
  O      15.367629    -14.652445     10.499352
  C      15.605248    -14.131435     13.241623
  H      16.935311    -10.278032     12.948738
  H      15.104805    -11.041652     14.459664
  H      12.905911    -12.318032     11.057972
  H      14.654992    -11.573482      9.530979
  H      16.860024    -11.115482     10.543539
  H      16.579303     -8.781025     11.171061
  H      15.111192    -15.049895     12.971991
  H      15.569905    -13.830875     14.273471
  O      12.644786    -15.137991     11.376730
  H      13.576643    -15.003142     11.134485
  H      12.413894    -14.395740     11.950528
  C      12.785000    -13.909001      5.224001
  C      13.482509    -12.620929      5.669983
  N      14.857330    -12.777031      6.110870
  C      15.255009    -13.230122      7.326628
  N      14.491124    -14.019037      8.059466
  N      16.491810    -12.985189      7.708254
  H      13.453745    -14.682279      4.845952
  H      12.064560    -13.670045      4.447292
  H      12.237414    -14.353490      6.054025
  H      13.516040    -11.928778      4.828091
  H      12.888302    -12.150854      6.463687
  H      15.494292    -12.090784      5.722512
  H      14.807120    -14.318985      9.013733
  H      13.540302    -14.202066      7.799851
  H      16.800188    -13.262591      8.680014
  H      17.007627    -12.249890      7.250850
  C       8.412999    -16.813004     15.233001
  C       9.879098    -16.912805     15.662304
  N      10.379840    -15.708424     16.274873
  C      10.684335    -14.585750     15.558886
  N      10.524591    -14.539216     14.260202
  N      11.104054    -13.507796     16.197332
  H       7.736528    -17.001581     16.066623
  H       8.202694    -17.572700     14.479694
  H       8.195143    -15.833099     14.813137
  H      10.019414    -17.731072     16.372035
  H      10.502370    -17.125785     14.791192
  H      10.303443    -15.618317     17.267328
  H      11.038594    -13.732879     13.707968
  H      10.323444    -15.381797     13.743993
  H      11.706177    -12.787628     15.636596
  H      11.294297    -13.574808     17.183558
  C      13.998001     -9.220000      7.724999
  O      15.077665    -10.065896      7.976695
  C      14.466106     -7.794165      7.420522
  H      13.329681     -9.174595      8.584877
  H      13.450906     -9.637527      6.872635
  H      15.498952     -9.730162      8.798763
  H      15.056805     -7.443639      8.259233
  H      15.092307     -7.792662      6.530780
  H      13.637357     -7.115634      7.260141
  C      14.518001     -6.670000     12.632999
  S      13.250537     -7.859321     13.161885
  H      14.324364     -6.427596     11.588086
  H      15.514916     -7.101575     12.664794
  H      14.444065     -5.775066     13.247159
  H      13.987929     -8.582128     13.997024
  C      20.972000     -6.019000     10.963999
  C      20.052443     -7.024771     11.656581
  C      18.685136     -7.332352     10.950521
  O      17.862001     -7.879880     11.729849
  O      18.542704     -7.059705      9.760981
  H      20.586780     -5.000259     11.007275
  H      21.101645     -6.294080      9.924436
  H      21.945215     -6.040815     11.454899
  H      20.571570     -7.990891     11.698599
  H      19.844506     -6.724746     12.687632
  C      19.312999    -20.521999      7.175001
  C      18.191408    -19.579181      7.495448
  C      16.904999    -19.831423      7.031452
  C      18.394591    -18.452817      8.276574
  C      15.849790    -19.004112      7.357302
  C      17.349025    -17.619845      8.613615
  C      16.059142    -17.892532      8.169648
  O      14.993273    -17.122938      8.493701
  H      19.761228    -20.307815      6.204785
  H      18.944395    -21.545722      7.150417
  H      20.095697    -20.447306      7.927062
  H      16.723347    -20.700517      6.413233
  H      19.386493    -18.228320      8.641792
  H      14.851927    -19.212239      7.003280
  H      17.492420    -16.749730      9.227124
  H      15.212404    -16.451427      9.161502
  C      19.522001    -11.465000      7.842998
  C      18.981051    -10.660479      9.009489
  N      19.141038    -11.335032     10.265403
  C      20.192948    -11.154406     11.096189
  O      21.157755    -10.448865     10.878851
  N      20.089897    -11.909966     12.262113
  H      19.317472    -10.958064      6.899981
  H      19.099097    -12.466270      7.832696
  H      20.601462    -11.560434      7.946229
  H      19.483076     -9.692834      9.079526
  H      17.914407    -10.496815      8.847186
  H      18.547608    -12.144228     10.428077
  H      20.682484    -11.577786     13.007718
  H      19.147706    -12.144268     12.556030
114
Coordinates from ORCA-job 01_xtb_cit_react E -175.313046471250
  C      16.263823    -11.000158     12.555194
  C      15.034151    -11.126486     13.393686
  C      13.905933    -11.611863     12.854109
  C      13.810388    -11.809185     11.423778
  C      14.774880    -11.424233     10.594402
  C      16.006845    -10.696787     11.063292
  C      12.766793    -12.135375     13.671122
  O      12.748650    -11.969746     14.910209
  O      11.919575    -12.818618     13.031300
  O      15.871585     -9.352888     10.706098
  O      16.984580    -12.261359     12.650676
  C      16.277865    -13.404119     12.335339
  C      16.306022    -13.877235     10.899888
  O      17.252798    -13.516644     10.166797
  O      15.376268    -14.634911     10.516178
  C      15.646137    -14.110128     13.267276
  H      16.965993    -10.260476     12.948989
  H      15.127299    -10.998236     14.460624
  H      12.916128    -12.292838     11.062443
  H      14.666997    -11.564596      9.530801
  H      16.876054    -11.109499     10.545588
  H      16.632706     -8.760853     11.097232
  H      15.151586    -15.029930     13.009715
  H      15.618244    -13.794275     14.293193
  O      12.662181    -15.121377     11.405548
  H      13.587285    -14.984536     11.158098
  H      12.426963    -14.376047     11.970182
  C      12.785000    -13.909001      5.224001
  C      13.478524    -12.620499      5.683008
  N      14.856279    -12.772901      6.119732
  C      15.254547    -13.224090      7.335373
  N      14.498102    -14.020183      8.064779
  N      16.485787    -12.960440      7.725964
  H      13.453745    -14.682279      4.845952
  H      12.071822    -13.665506      4.441041
  H      12.227013    -14.359747      6.043464
  H      13.506658    -11.921188      4.846461
  H      12.884526    -12.163183      6.483345
  H      15.488267    -12.087502      5.731473
  H      14.810930    -14.308257      9.025156
  H      13.551306    -14.218802      7.798727
  H      16.806103    -13.244238      8.693435
  H      16.998674    -12.225332      7.271222
  C       8.412999    -16.813004     15.233001
  C       9.878042    -16.894032     15.666759
  N      10.374489    -15.684349     16.277712
  C      10.685990    -14.562309     15.564076
  N      10.529387    -14.513580     14.265416
  N      11.111855    -13.484511     16.200253
  H       7.736528    -17.001581     16.066623
  H       8.214552    -17.572657     14.480660
  H       8.191609    -15.838633     14.810057
  H      10.015939    -17.707170     16.381080
  H      10.505337    -17.110632     14.798139
  H      10.287465    -15.586926     17.274731
  H      11.045454    -13.705703     13.718311
  H      10.326798    -15.349841     13.744756
  H      11.719122    -12.760298     15.642960
  H      11.300486    -13.549866     17.186262
  C      13.998001     -9.220000      7.725000
  O      15.081537    -10.088226      7.954963
  C      14.483262     -7.801972      7.425259
  H      13.329681     -9.174595      8.584877
  H      13.444320     -9.624358      6.870155
  H      15.499686     -9.751952      8.780961
  H      15.091070     -7.458708      8.257422
  H      15.096864     -7.798195      6.527727
  H      13.649291     -7.121694      7.287356
  C      14.518001     -6.670000     12.632998
  S      13.259492     -7.869165     13.154844
  H      14.324364     -6.427596     11.588087
  H      15.509380     -7.113422     12.641160
  H      14.464973     -5.785333     13.256906
  H      14.034856     -8.599928     13.950537
  C      20.972000     -6.019000     10.963999
  C      20.038934     -7.026007     11.647680
  C      18.677833     -7.342132     10.919020
  O      17.824021     -7.922823     11.648489
  O      18.556372     -7.051793      9.733725
  H      20.586780     -5.000259     11.007275
  H      21.095160     -6.294514      9.920123
  H      21.947903     -6.042462     11.451980
  H      20.553846     -7.990599     11.701789
  H      19.815722     -6.715348     12.671306
  C      19.312999    -20.521999      7.175001
  C      18.199841    -19.564802      7.506232
  C      16.910647    -19.798914      7.039701
  C      18.410804    -18.443550      8.298485
  C      15.863126    -18.962762      7.370621
  C      17.371224    -17.599234      8.639931
  C      16.080292    -17.857775      8.192002
  O      15.017625    -17.085153      8.517625
  H      19.761228    -20.307815      6.204785
  H      18.933645    -21.541963      7.147357
  H      20.099525    -20.460806      7.924489
  H      16.720744    -20.660454      6.413663
  H      19.403958    -18.230972      8.668260
  H      14.864002    -19.157396      7.013864
  H      17.521443    -16.729066      9.260590
  H      15.231551    -16.410890      9.184693
  C      19.522001    -11.465000      7.842998
  C      18.987157    -10.653598      9.002231
  N      19.149595    -11.325398     10.263512
  C      20.197066    -11.127398     11.094585
  O      21.158471    -10.418312     10.864463
  N      20.100949    -11.878727     12.261628
  H      19.317472    -10.958064      6.899981
  H      19.091695    -12.464187      7.838251
  H      20.603447    -11.562703      7.949478
  H      19.487688     -9.684970      9.062465
  H      17.916465    -10.483188      8.849470
  H      18.561102    -12.133060     10.432459
  H      20.691947    -11.545085     13.006249
  H      19.164510    -12.115076     12.552701
114
Coordinates from ORCA-job 01_xtb_cit_react E -175.313633970390
  C      16.258450    -10.984760     12.560134
  C      15.027831    -11.101460     13.401870
  C      13.901094    -11.596551     12.863648
  C      13.806218    -11.802463     11.432864
  C      14.769063    -11.417070     10.603764
  C      16.001385    -10.686628     11.068118
  C      12.762148    -12.116334     13.683129
  O      12.746003    -11.951059     14.922338
  O      11.913018    -12.796818     13.043269
  O      15.865928     -9.341547     10.703005
  O      16.979500    -12.247591     12.661697
  C      16.274724    -13.391362     12.345156
  C      16.302816    -13.866987     10.910554
  O      17.246343    -13.504392     10.175856
  O      15.376108    -14.628630     10.526812
  C      15.637767    -14.094188     13.277204
  H      16.965438    -10.245016     12.950068
  H      15.119317    -10.957036     14.470937
  H      12.911747    -12.286798     11.072153
  H      14.663211    -11.558916      9.542448
  H      16.875946    -11.104242     10.552831
  H      16.644570     -8.755159     11.074015
  H      15.143196    -15.012474     13.018396
  H      15.593002    -13.771298     14.306712
  O      12.663397    -15.114266     11.427372
  H      13.589303    -14.977803     11.177411
  H      12.425680    -14.362626     11.987476
  C      12.785000    -13.909001      5.224001
  C      13.479293    -12.621842      5.686246
  N      14.855515    -12.776811      6.126497
  C      15.253859    -13.224689      7.343700
  N      14.499137    -14.020395      8.075665
  N      16.485888    -12.954392      7.733153
  H      13.453745    -14.682279      4.845952
  H      12.073526    -13.666790      4.438679
  H      12.224123    -14.362357      6.040106
  H      13.510462    -11.921327      4.850691
  H      12.882078    -12.162419      6.482500
  H      15.490190    -12.105048      5.730919
  H      14.811824    -14.306630      9.034633
  H      13.553126    -14.222006      7.809575
  H      16.806940    -13.234615      8.701145
  H      16.993935    -12.211956      7.282255
  C       8.412999    -16.813004     15.233001
  C       9.878934    -16.887886     15.669544
  N      10.366888    -15.672429     16.287449
  C      10.680041    -14.548850     15.579661
  N      10.525007    -14.497919     14.278966
  N      11.103833    -13.468299     16.217534
  H       7.736528    -17.001581     16.066623
  H       8.219239    -17.567073     14.478862
  H       8.191659    -15.840625     14.813287
  H      10.018240    -17.701564     16.383113
  H      10.513147    -17.101833     14.801195
  H      10.268208    -15.573456     17.287548
  H      11.038717    -13.691246     13.733192
  H      10.313699    -15.329177     13.760422
  H      11.712285    -12.746431     15.660137
  H      11.296444    -13.538948     17.202348
  C      13.998001     -9.220000      7.724999
  O      15.072650    -10.085585      7.978305
  C      14.497505     -7.808951      7.418226
  H      13.329681     -9.174595      8.584877
  H      13.444741     -9.623052      6.868018
  H      15.490542     -9.747548      8.792803
  H      15.105615     -7.463414      8.249570
  H      15.116005     -7.812784      6.523831
  H      13.666534     -7.125382      7.274621
  C      14.518001     -6.670000     12.632999
  S      13.245174     -7.860964     13.150098
  H      14.324364     -6.427596     11.588086
  H      15.511925     -7.113760     12.645121
  H      14.470881     -5.782973     13.256299
  H      14.018529     -8.622523     13.915689
  C      20.972000     -6.019000     10.963999
  C      20.025822     -7.023364     11.643081
  C      18.677758     -7.352240     10.907657
  O      17.826317     -7.962617     11.626068
  O      18.552051     -7.034672      9.727159
  H      20.586780     -5.000259     11.007275
  H      21.089457     -6.292835      9.918518
  H      21.948184     -6.043372     11.449120
  H      20.537999     -7.988249     11.712219
  H      19.786239     -6.702862     12.660450
  C      19.312999    -20.521999      7.175001
  C      18.200886    -19.562806      7.512760
  C      16.909735    -19.792920      7.050377
  C      18.416249    -18.442791      8.309064
  C      15.863995    -18.956196      7.387624
  C      17.376995    -17.597165      8.656081
  C      16.083917    -17.854044      8.212188
  O      15.023540    -17.080113      8.543194
  H      19.761228    -20.307815      6.204785
  H      18.933682    -21.542069      7.145383
  H      20.101491    -20.465306      7.922772
  H      16.716477    -20.652407      6.422713
  H      19.411727    -18.230871      8.674050
  H      14.862139    -19.150767      7.036115
  H      17.529044    -16.725586      9.277952
  H      15.242560    -16.410231      9.213104
  C      19.522001    -11.465000      7.842998
  C      18.989061    -10.639781      9.006710
  N      19.154166    -11.313608     10.270743
  C      20.200122    -11.113794     11.104209
  O      21.159438    -10.402208     10.875158
  N      20.100390    -11.862342     12.270516
  H      19.317472    -10.958064      6.899981
  H      19.088572    -12.463856      7.843526
  H      20.602687    -11.570046      7.940399
  H      19.491705     -9.673388      9.071771
  H      17.917013    -10.472722      8.855643
  H      18.562850    -12.122259     10.441378
  H      20.695203    -11.530164     13.013117
  H      19.160593    -12.098362     12.561204
114
Coordinates from ORCA-job 01_xtb_cit_react E -175.314486880180
  C      16.259155    -10.983080     12.551966
  C      15.028181    -11.099427     13.392454
  C      13.905128    -11.601203     12.852769
  C      13.813971    -11.809465     11.420934
  C      14.778529    -11.422259     10.591821
  C      16.006124    -10.688197     11.058622
  C      12.765768    -12.115750     13.673537
  O      12.751253    -11.946532     14.911923
  O      11.912786    -12.793438     13.035859
  O      15.872340     -9.345858     10.684927
  O      16.982603    -12.247303     12.659581
  C      16.281435    -13.393286     12.343610
  C      16.303077    -13.865398     10.906964
  O      17.243846    -13.498507     10.171887
  O      15.375465    -14.625644     10.522711
  C      15.652253    -14.100877     13.278037
  H      16.967310    -10.244469     12.942593
  H      15.113574    -10.945642     14.459905
  H      12.919394    -12.294143     11.058331
  H      14.669977    -11.557549      9.530457
  H      16.881605    -11.109080     10.550499
  H      16.682658     -8.782537     11.027189
  H      15.157584    -15.021339     13.023965
  H      15.617358    -13.778747     14.306211
  O      12.668114    -15.117826     11.426461
  H      13.593702    -14.978936     11.176638
  H      12.425921    -14.361911     11.979555
  C      12.785000    -13.909001      5.224001
  C      13.480943    -12.621717      5.684918
  N      14.859275    -12.779444      6.117808
  C      15.255573    -13.221886      7.337879
  N      14.503016    -14.022066      8.068446
  N      16.482621    -12.938799      7.734084
  H      13.453745    -14.682279      4.845952
  H      12.073358    -13.667353      4.438521
  H      12.223644    -14.362238      6.039699
  H      13.508273    -11.919954      4.850553
  H      12.889977    -12.164084      6.486525
  H      15.492729    -12.098798      5.724196
  H      14.810338    -14.301725      9.028856
  H      13.562009    -14.238146      7.795570
  H      16.803235    -13.227377      8.699682
  H      16.983471    -12.187276      7.289403
  C       8.412999    -16.813004     15.233001
  C       9.880095    -16.884441     15.671704
  N      10.370141    -15.667565     16.281215
  C      10.684383    -14.545311     15.570807
  N      10.522431    -14.491064     14.270848
  N      11.110301    -13.462568     16.208139
  H       7.736528    -17.001581     16.066623
  H       8.220080    -17.569660     14.477545
  H       8.188919    -15.838081     14.810795
  H      10.018860    -17.694671     16.391194
  H      10.512252    -17.105500     14.805626
  H      10.294885    -15.577809     17.277682
  H      11.039402    -13.685278     13.722500
  H      10.303022    -15.320914     13.751842
  H      11.719931    -12.741192     15.650178
  H      11.301853    -13.530616     17.192738
  C      13.998001     -9.220000      7.724999
  O      15.077199    -10.094033      7.958536
  C      14.501480     -7.807869      7.428532
  H      13.329681     -9.174595      8.584877
  H      13.440919     -9.616514      6.866451
  H      15.492974     -9.758540      8.779305
  H      15.118079     -7.472323      8.258165
  H      15.111376     -7.801433      6.528371
  H      13.668890     -7.122446      7.301922
  C      14.518001     -6.670000     12.632998
  S      13.237427     -7.844369     13.181617
  H      14.324364     -6.427596     11.588087
  H      15.504408     -7.129477     12.645181
  H      14.487307     -5.777944     13.251819
  H      14.039883     -8.656868     13.873490
  C      20.972000     -6.019000     10.963999
  C      20.037021     -7.020765     11.652638
  C      18.706534     -7.357333     10.897800
  O      17.873104     -8.017065     11.584332
  O      18.580465     -6.999589      9.729926
  H      20.586780     -5.000259     11.007275
  H      21.073432     -6.295581      9.917768
  H      21.955381     -6.039090     11.432892
  H      20.553333     -7.981596     11.737843
  H      19.781944     -6.686725     12.661672
  C      19.312999    -20.521999      7.175001
  C      18.204023    -19.558120      7.514523
  C      16.913111    -19.779877      7.048331
  C      18.422270    -18.440672      8.315235
  C      15.870765    -18.939252      7.386096
  C      17.385509    -17.590168      8.662130
  C      16.092963    -17.840655      8.215088
  O      15.034270    -17.064850      8.548258
  H      19.761228    -20.307815      6.204785
  H      18.930424    -21.540813      7.144237
  H      20.102270    -20.469206      7.922169
  H      16.717170    -20.636106      6.417107
  H      19.417568    -18.234118      8.683245
  H      14.869005    -19.127643      7.031650
  H      17.542997    -16.721248      9.287557
  H      15.256379    -16.399866      9.222271
  C      19.522001    -11.465000      7.842998
  C      18.998338    -10.635739      9.012715
  N      19.162731    -11.315556     10.271882
  C      20.198723    -11.105647     11.113326
  O      21.148412    -10.381873     10.891661
  N      20.102802    -11.861977     12.274486
  H      19.317472    -10.958064      6.899981
  H      19.080773    -12.459954      7.846631
  H      20.601931    -11.577727      7.935576
  H      19.509541     -9.673017      9.077195
  H      17.924674    -10.453094      8.872657
  H      18.570329    -12.120995     10.440789
  H      20.690069    -11.524118     13.021180
  H      19.163527    -12.099734     12.563121
114
Coordinates from ORCA-job 01_xtb_cit_react E -175.315202698420
  C      16.265264    -11.021993     12.551151
  C      15.038577    -11.145390     13.390231
  C      13.917102    -11.644728     12.848694
  C      13.817146    -11.832151     11.415606
  C      14.780640    -11.435000     10.587297
  C      16.010014    -10.712780     11.062537
  C      12.785279    -12.161780     13.674074
  O      12.786533    -12.004177     14.913769
  O      11.923125    -12.828887     13.040498
  O      15.879494     -9.366069     10.706824
  O      16.991101    -12.284312     12.648209
  C      16.290625    -13.426972     12.325724
  C      16.299935    -13.880443     10.883765
  O      17.235898    -13.502627     10.146430
  O      15.368491    -14.634426     10.499381
  C      15.667633    -14.144502     13.255968
  H      16.975284    -10.288466     12.948034
  H      15.125306    -11.000247     14.458053
  H      12.916133    -12.301896     11.050714
  H      14.662519    -11.542757      9.522474
  H      16.889647    -11.124257     10.551970
  H      16.712903     -8.840964     11.048709
  H      15.170940    -15.063235     12.997148
  H      15.652936    -13.839350     14.286130
  O      12.661659    -15.122763     11.390151
  H      13.590348    -14.987116     11.147275
  H      12.419447    -14.372449     11.949426
  C      12.785000    -13.909001      5.224001
  C      13.475726    -12.617350      5.671770
  N      14.852868    -12.774767      6.101895
  C      15.248486    -13.212025      7.322211
  N      14.486454    -13.995044      8.059038
  N      16.479075    -12.938699      7.710181
  H      13.453745    -14.682279      4.845952
  H      12.066155    -13.678648      4.441542
  H      12.231366    -14.360536      6.045938
  H      13.499387    -11.919365      4.834119
  H      12.886048    -12.155882      6.471856
  H      15.496054    -12.116701      5.687089
  H      14.798337    -14.283895      9.013167
  H      13.545491    -14.210723      7.786714
  H      16.804187    -13.224559      8.676199
  H      16.976077    -12.188667      7.261814
  C       8.412999    -16.813004     15.233001
  C       9.877949    -16.924888     15.664219
  N      10.395094    -15.728085     16.283190
  C      10.727086    -14.609350     15.581640
  N      10.557282    -14.541709     14.282522
  N      11.175789    -13.540303     16.222979
  H       7.736528    -17.001581     16.066623
  H       8.200723    -17.550436     14.462341
  H       8.207858    -15.823963     14.829104
  H      10.001196    -17.744944     16.375113
  H      10.501427    -17.150794     14.794502
  H      10.327218    -15.648644     17.281938
  H      11.070125    -13.735010     13.737405
  H      10.304074    -15.359571     13.758378
  H      11.779372    -12.819498     15.663642
  H      11.369028    -13.615664     17.207282
  C      13.998001     -9.220000      7.724999
  O      15.079918    -10.084505      7.956055
  C      14.489983     -7.803621      7.429377
  H      13.329681     -9.174595      8.584877
  H      13.447825     -9.622384      6.865790
  H      15.497348     -9.753114      8.778854
  H      15.099292     -7.458611      8.260987
  H      15.102708     -7.788830      6.530968
  H      13.648253     -7.128834      7.299902
  C      14.518001     -6.670000     12.632999
  S      13.219689     -7.822013     13.194260
  H      14.324364     -6.427596     11.588086
  H      15.496049     -7.137363     12.664228
  H      14.497777     -5.773070     13.245675
  H      14.011922     -8.672757     13.840004
  C      20.972000     -6.019000     10.963999
  C      20.056666     -7.023130     11.674529
  C      18.720871     -7.387543     10.944547
  O      17.927726     -8.085072     11.638157
  O      18.545428     -7.027576      9.785057
  H      20.586780     -5.000259     11.007275
  H      21.043351     -6.297806      9.914248
  H      21.969457     -6.030438     11.403373
  H      20.588565     -7.975172     11.762098
  H      19.807978     -6.680019     12.683633
  C      19.312999    -20.521999      7.175001
  C      18.201350    -19.562529      7.507130
  C      16.913137    -19.788202      7.037129
  C      18.417039    -18.444093      8.305016
  C      15.869316    -18.948387      7.369496
  C      17.379324    -17.594673      8.645498
  C      16.088733    -17.847753      8.195712
  O      15.029387    -17.073185      8.527606
  H      19.761228    -20.307815      6.204785
  H      18.935968    -21.542904      7.146361
  H      20.100930    -20.463452      7.923172
  H      16.720491    -20.647201      6.408577
  H      19.410123    -18.236463      8.676569
  H      14.869132    -19.137556      7.011551
  H      17.536918    -16.724958      9.267094
  H      15.255696    -16.412722      9.204332
  C      19.522001    -11.465000      7.842998
  C      19.005264    -10.646511      9.020267
  N      19.176786    -11.337960     10.271523
  C      20.207124    -11.125467     11.118278
  O      21.153169    -10.397271     10.900971
  N      20.107843    -11.884712     12.276190
  H      19.317472    -10.958064      6.899981
  H      19.082310    -12.459313      7.840899
  H      20.600397    -11.581623      7.927974
  H      19.524240     -9.688571      9.090063
  H      17.934776    -10.451710      8.886980
  H      18.581706    -12.138663     10.436714
  H      20.689010    -11.545246     13.027190
  H      19.170128    -12.132644     12.556784
114
Coordinates from ORCA-job 01_xtb_cit_react E -175.315776946680
  C      16.257008    -11.025075     12.541488
  C      15.028168    -11.151325     13.375036
  C      13.909770    -11.656581     12.831073
  C      13.815605    -11.847980     11.400776
  C      14.780051    -11.450219     10.575680
  C      16.007012    -10.724652     11.050535
  C      12.772180    -12.165384     13.653473
  O      12.768649    -11.997715     14.891943
  O      11.907571    -12.832864     13.020884
  O      15.877555     -9.375987     10.690526
  O      16.984642    -12.285217     12.648645
  C      16.290168    -13.432868     12.329984
  C      16.296411    -13.884340     10.886715
  O      17.228175    -13.498259     10.149513
  O      15.367489    -14.640334     10.500458
  C      15.676718    -14.153111     13.263753
  H      16.963631    -10.289617     12.938529
  H      15.106653    -10.995757     14.440920
  H      12.917236    -12.319336     11.032638
  H      14.666333    -11.557452      9.511038
  H      16.889254    -11.138421     10.546723
  H      16.736358     -8.867202     11.009431
  H      15.188523    -15.076203     13.009298
  H      15.661233    -13.843074     14.293673
  O      12.663572    -15.132303     11.391188
  H      13.591970    -14.994003     11.147952
  H      12.414701    -14.377609     11.940392
  C      12.785000    -13.909001      5.224001
  C      13.481497    -12.618858      5.668872
  N      14.860231    -12.780476      6.096251
  C      15.254224    -13.213234      7.319544
  N      14.494869    -14.002035      8.054329
  N      16.480804    -12.930253      7.714073
  H      13.453745    -14.682279      4.845952
  H      12.066457    -13.678578      4.441144
  H      12.230426    -14.358732      6.046318
  H      13.504190    -11.921855      4.830250
  H      12.896574    -12.155047      6.471212
  H      15.504381    -12.126379      5.679798
  H      14.801281    -14.285969      9.012069
  H      13.559285    -14.231461      7.775035
  H      16.802732    -13.220899      8.679805
  H      16.969216    -12.167427      7.277651
  C       8.412999    -16.813004     15.233001
  C       9.877827    -16.919012     15.665057
  N      10.387435    -15.715937     16.279701
  C      10.713760    -14.599336     15.573203
  N      10.543258    -14.540431     14.273486
  N      11.159570    -13.526423     16.209733
  H       7.736528    -17.001581     16.066623
  H       8.202523    -17.551100     14.462216
  H       8.205990    -15.824941     14.829393
  H      10.002001    -17.735765     16.378195
  H      10.503477    -17.145061     14.796227
  H      10.322172    -15.630293     17.281353
  H      11.055212    -13.736517     13.721065
  H      10.293754    -15.363939     13.753488
  H      11.761606    -12.806856     15.645862
  H      11.357108    -13.597079     17.193360
  C      13.998001     -9.220000      7.724999
  O      15.082572    -10.086400      7.952865
  C      14.487485     -7.803478      7.426276
  H      13.329681     -9.174595      8.584877
  H      13.443456     -9.621770      6.868456
  H      15.500415     -9.757279      8.775838
  H      15.101131     -7.457635      8.254377
  H      15.095156     -7.786922      6.524456
  H      13.643114     -7.130320      7.302112
  C      14.518001     -6.670000     12.632998
  S      13.209597     -7.800854     13.211183
  H      14.324364     -6.427596     11.588087
  H      15.492952     -7.142680     12.680132
  H      14.502022     -5.768811     13.239407
  H      14.004113     -8.715235     13.766379
  C      20.972000     -6.019000     10.963999
  C      20.061092     -7.026316     11.673008
  C      18.737196     -7.401900     10.925968
  O      17.962854     -8.140113     11.602737
  O      18.554312     -6.995302      9.781697
  H      20.586780     -5.000259     11.007275
  H      21.041208     -6.296969      9.913330
  H      21.971301     -6.027477     11.400586
  H      20.596292     -7.974018     11.777497
  H      19.796866     -6.677210     12.675504
  C      19.312999    -20.521999      7.175001
  C      18.204968    -19.558407      7.510334
  C      16.915874    -19.776187      7.037726
  C      18.423607    -18.444391      8.313930
  C      15.874600    -18.933620      7.372798
  C      17.388457    -17.591939      8.656878
  C      16.096995    -17.837705      8.204705
  O      15.041007    -17.058353      8.539435
  H      19.761228    -20.307815      6.204785
  H      18.931662    -21.541236      7.144977
  H      20.101668    -20.467891      7.922822
  H      16.720518    -20.631231      6.404513
  H      19.416639    -18.242779      8.688688
  H      14.874247    -19.116833      7.012404
  H      17.548945    -16.725829      9.282656
  H      15.272965    -16.406085      9.222916
  C      19.522001    -11.465000      7.842998
  C      19.015497    -10.640507      9.021638
  N      19.188216    -11.342934     10.268020
  C      20.210516    -11.125485     11.125236
  O      21.156744    -10.390003     10.917680
  N      20.106825    -11.894169     12.278622
  H      19.317472    -10.958064      6.899981
  H      19.074066    -12.455830      7.847305
  H      20.600061    -11.588136      7.926250
  H      19.541139     -9.687066      9.096664
  H      17.946444    -10.436378      8.896226
  H      18.586490    -12.142497     10.433722
  H      20.686348    -11.557395     13.031913
  H      19.167856    -12.140665     12.561361
114
Coordinates from ORCA-job 01_xtb_cit_react E -175.316459353340
  C      16.260858    -11.020753     12.541784
  C      15.028645    -11.142046     13.375979
  C      13.911326    -11.652807     12.831405
  C      13.818891    -11.849295     11.400148
  C      14.782413    -11.449324     10.575354
  C      16.009398    -10.726926     11.049157
  C      12.771148    -12.161254     13.651718
  O      12.766619    -11.994374     14.890463
  O      11.904918    -12.827957     13.018800
  O      15.885723     -9.372678     10.690814
  O      16.985309    -12.283218     12.654197
  C      16.292275    -13.434115     12.337861
  C      16.296088    -13.882087     10.892404
  O      17.222955    -13.486554     10.155488
  O      15.368994    -14.639632     10.502479
  C      15.683599    -14.156240     13.273457
  H      16.967903    -10.282699     12.934261
  H      15.105513    -10.985714     14.441151
  H      12.920500    -12.318159     11.028178
  H      14.668207    -11.553138      9.509127
  H      16.894464    -11.141014     10.547465
  H      16.764182     -8.876788     10.985296
  H      15.196905    -15.080308     13.018325
  H      15.665044    -13.846397     14.304995
  O      12.671592    -15.127035     11.396893
  H      13.599717    -14.988725     11.151928
  H      12.418053    -14.369068     11.940854
  C      12.785000    -13.909001      5.224001
  C      13.482873    -12.617857      5.664933
  N      14.861373    -12.777310      6.095543
  C      15.253411    -13.205128      7.321587
  N      14.493177    -13.992412      8.057022
  N      16.480096    -12.923207      7.716672
  H      13.453745    -14.682279      4.845952
  H      12.064674    -13.682256      4.441592
  H      12.231830    -14.357103      6.048325
  H      13.505693    -11.923043      4.824276
  H      12.897684    -12.150671      6.465886
  H      15.507583    -12.123291      5.677054
  H      14.800169    -14.275504      9.015808
  H      13.563787    -14.237078      7.770988
  H      16.803308    -13.212004      8.683548
  H      16.964630    -12.152882      7.289345
  C       8.412999    -16.813004     15.233001
  C       9.879761    -16.927233     15.663103
  N      10.393579    -15.723365     16.280357
  C      10.718167    -14.602561     15.578475
  N      10.547353    -14.540701     14.278764
  N      11.168680    -13.532675     16.215502
  H       7.736528    -17.001581     16.066623
  H       8.196960    -17.544030     14.458250
  H       8.210373    -15.822309     14.837349
  H      10.001537    -17.746187     16.374093
  H      10.505946    -17.153363     14.793446
  H      10.337870    -15.644888     17.282713
  H      11.058763    -13.738070     13.728957
  H      10.292857    -15.362043     13.756913
  H      11.768848    -12.813082     15.650389
  H      11.374493    -13.610074     17.196957
  C      13.998001     -9.220000      7.724999
  O      15.083961    -10.082138      7.956248
  C      14.477302     -7.801659      7.419823
  H      13.329681     -9.174595      8.584877
  H      13.442737     -9.625143      6.870549
  H      15.506150     -9.750463      8.775042
  H      15.087028     -7.445400      8.246597
  H      15.085416     -7.785043      6.518066
  H      13.627533     -7.135532      7.290034
  C      14.518001     -6.670000     12.632999
  S      13.200867     -7.796719     13.205780
  H      14.324364     -6.427596     11.588086
  H      15.491837     -7.145367     12.699514
  H      14.498432     -5.766312     13.238080
  H      13.992187     -8.797147     13.620834
  C      20.972000     -6.019000     10.963999
  C      20.062738     -7.035463     11.661387
  C      18.744457     -7.425650     10.913718
  O      17.999205     -8.205455     11.579239
  O      18.524293     -6.987057      9.787448
  H      20.586780     -5.000259     11.007275
  H      21.049824     -6.291022      9.912149
  H      21.968301     -6.026037     11.407449
  H      20.606964     -7.977256     11.770344
  H      19.789226     -6.692204     12.662870
  C      19.312999    -20.521999      7.175001
  C      18.210689    -19.552580      7.517927
  C      16.919268    -19.761951      7.045839
  C      18.434523    -18.442839      8.327205
  C      15.881249    -18.916817      7.386346
  C      17.402436    -17.586753      8.674905
  C      16.108442    -17.825751      8.223297
  O      15.056813    -17.040605      8.560054
  H      19.761228    -20.307815      6.204785
  H      18.925024    -21.538618      7.142451
  H      20.103317    -20.475766      7.921733
  H      16.719783    -20.612342      6.407614
  H      19.429987    -18.245488      8.699949
  H      14.878827    -19.095390      7.027468
  H      17.563564    -16.721235      9.302784
  H      15.292957    -16.393423      9.247918
  C      19.522001    -11.465000      7.842998
  C      19.030632    -10.636541      9.025457
  N      19.208775    -11.346427     10.268740
  C      20.224741    -11.125496     11.132538
  O      21.172338    -10.387651     10.929810
  N      20.118099    -11.898474     12.282800
  H      19.317472    -10.958064      6.899981
  H      19.066135    -12.452673      7.849609
  H      20.599868    -11.598099      7.920005
  H      19.571297     -9.691514      9.102379
  H      17.964751    -10.419782      8.909451
  H      18.600120    -12.142305     10.436541
  H      20.695874    -11.561905     13.037558
  H      19.176944    -12.142540     12.563286
114
Coordinates from ORCA-job 01_xtb_cit_react E -175.317204823430
  C      16.251055    -11.013596     12.530202
  C      15.013002    -11.132744     13.360537
  C      13.898798    -11.649474     12.812959
  C      13.812014    -11.853592     11.381833
  C      14.776846    -11.453078     10.559009
  C      16.001092    -10.733189     11.034065
  C      12.754085    -12.158907     13.627931
  O      12.742759    -11.987044     14.866147
  O      11.891864    -12.830323     12.993978
  O      15.882668     -9.375634     10.676692
  O      16.973307    -12.276385     12.654282
  C      16.284189    -13.433595     12.342588
  C      16.292227    -13.881187     10.895976
  O      17.215319    -13.476685     10.162715
  O      15.369080    -14.642683     10.500926
  C      15.684096    -14.160086     13.281593
  H      16.953715    -10.269082     12.917212
  H      15.085077    -10.974879     14.425407
  H      12.916168    -12.322876     11.003873
  H      14.669685    -11.561111      9.491903
  H      16.889109    -11.147295     10.538680
  H      16.771544     -8.884647     10.947470
  H      15.201386    -15.086889     13.025475
  H      15.667759    -13.850245     14.311822
  O      12.679333    -15.128045     11.394642
  H      13.606151    -14.986900     11.146599
  H      12.417134    -14.366646     11.929711
  C      12.785000    -13.909001      5.224001
  C      13.485922    -12.617035      5.660249
  N      14.864266    -12.774048      6.092836
  C      15.255132    -13.199949      7.320432
  N      14.495191    -13.990099      8.053579
  N      16.480814    -12.917247      7.718949
  H      13.453745    -14.682279      4.845952
  H      12.063144    -13.683775      4.442716
  H      12.233492    -14.353956      6.051159
  H      13.508895    -11.925459      4.816938
  H      12.901804    -12.146192      6.460767
  H      15.510449    -12.124334      5.672913
  H      14.800105    -14.269710      9.015036
  H      13.575197    -14.255426      7.756934
  H      16.805170    -13.202599      8.686001
  H      16.962960    -12.136757      7.305372
  C       8.412999    -16.813004     15.233001
  C       9.881159    -16.932556     15.659998
  N      10.400582    -15.728336     16.273182
  C      10.719277    -14.607250     15.569069
  N      10.546327    -14.547948     14.269587
  N      11.166879    -13.535479     16.203844
  H       7.736528    -17.001581     16.066623
  H       8.191954    -17.543958     14.458346
  H       8.210906    -15.820862     14.839141
  H      10.001642    -17.749837     16.372637
  H      10.504849    -17.162197     14.789398
  H      10.356496    -15.651415     17.276557
  H      11.051487    -13.745221     13.720237
  H      10.297088    -15.370021     13.747780
  H      11.758065    -12.811020     15.634887
  H      11.374936    -13.609335     17.184941
  C      13.998001     -9.220000      7.724999
  O      15.089905    -10.075907      7.951172
  C      14.459813     -7.796967      7.411466
  H      13.329681     -9.174595      8.584877
  H      13.437458     -9.630299      6.875396
  H      15.514855     -9.742230      8.769562
  H      15.065273     -7.426943      8.235530
  H      15.066596     -7.779375      6.508489
  H      13.602283     -7.141572      7.275426
  C      14.518001     -6.670000     12.632998
  S      13.190552     -7.785493     13.197238
  H      14.324364     -6.427596     11.588087
  H      15.486155     -7.158594     12.709926
  H      14.497437     -5.766825     13.237236
  H      13.948171     -8.846262     13.474427
  C      20.972000     -6.019000     10.963999
  C      20.062263     -7.043409     11.643770
  C      18.751325     -7.443709     10.893046
  O      18.035024     -8.264538     11.544979
  O      18.499479     -6.970986      9.786732
  H      20.586780     -5.000259     11.007275
  H      21.076745     -6.285832      9.913703
  H      21.958428     -6.026188     11.429061
  H      20.612870     -7.981534     11.755386
  H      19.778580     -6.709999     12.645476
  C      19.312999    -20.521999      7.175001
  C      18.220203    -19.543460      7.526702
  C      16.927334    -19.738750      7.051079
  C      18.450340    -18.441571      8.345308
  C      15.894812    -18.888846      7.396006
  C      17.424026    -17.579840      8.697382
  C      16.128558    -17.805285      8.240854
  O      15.083000    -17.012312      8.578141
  H      19.761228    -20.307815      6.204785
  H      18.913530    -21.533952      7.138975
  H      20.104969    -20.487009      7.920598
  H      16.722284    -20.582598      6.405988
  H      19.446567    -18.254617      8.721765
  H      14.892235    -19.056577      7.032461
  H      17.583350    -16.716434      9.329741
  H      15.319624    -16.369780      9.271432
  C      19.522001    -11.465000      7.842998
  C      19.046186    -10.631112      9.030920
  N      19.226312    -11.350969     10.267701
  C      20.229827    -11.124783     11.143482
  O      21.173541    -10.379216     10.953205
  N      20.119730    -11.904907     12.288099
  H      19.317472    -10.958064      6.899981
  H      19.055134    -12.447935      7.851466
  H      20.599605    -11.609214      7.916286
  H      19.604684     -9.696660      9.110006
  H      17.983939    -10.395731      8.926711
  H      18.610045    -12.141626     10.436622
  H      20.697013    -11.575665     13.046836
  H      19.177017    -12.146049     12.566201
114
Coordinates from ORCA-job 01_xtb_cit_react E -175.317872996690
  C      16.241303    -11.023712     12.518240
  C      15.000266    -11.145257     13.345359
  C      13.887479    -11.662851     12.796641
  C      13.800023    -11.865506     11.365853
  C      14.763724    -11.463239     10.543610
  C      15.989571    -10.750708     11.020911
  C      12.743048    -12.178068     13.609199
  O      12.729733    -12.006052     14.847128
  O      11.886430    -12.854399     12.974835
  O      15.876920     -9.391265     10.669208
  O      16.964830    -12.282504     12.649313
  C      16.282784    -13.443969     12.340165
  C      16.294634    -13.888118     10.893252
  O      17.215369    -13.475489     10.162578
  O      15.373856    -14.652592     10.495661
  C      15.695221    -14.177652     13.280792
  H      16.938852    -10.273811     12.900812
  H      15.070554    -10.989243     14.411268
  H      12.905739    -12.333800     10.984367
  H      14.661598    -11.570477      9.476875
  H      16.881085    -11.161845     10.527358
  H      16.769559     -8.903345     10.921725
  H      15.221435    -15.107241     13.021400
  H      15.667342    -13.864811     14.313587
  O      12.688683    -15.141109     11.387359
  H      13.614198    -14.995495     11.135709
  H      12.418923    -14.379638     11.918094
  C      12.785000    -13.909001      5.224001
  C      13.486502    -12.616367      5.657376
  N      14.864021    -12.771079      6.091379
  C      15.254275    -13.198426      7.318324
  N      14.494423    -13.988981      8.050142
  N      16.479973    -12.916670      7.716415
  H      13.453745    -14.682279      4.845952
  H      12.062518    -13.682496      4.443979
  H      12.234730    -14.351257      6.053210
  H      13.511074    -11.928364      4.811379
  H      12.901813    -12.142214      6.455423
  H      15.508473    -12.112477      5.676060
  H      14.799919    -14.267638      9.012197
  H      13.583176    -14.272823      7.744417
  H      16.808661    -13.198278      8.681450
  H      16.960812    -12.129852      7.311734
  C       8.412999    -16.813004     15.233001
  C       9.879171    -16.955012     15.649844
  N      10.416142    -15.761702     16.262873
  C      10.734174    -14.640148     15.559458
  N      10.558345    -14.579385     14.261291
  N      11.183268    -13.570145     16.195116
  H       7.736528    -17.001581     16.066623
  H       8.178723    -17.533628     14.455089
  H       8.221999    -15.816812     14.848836
  H       9.993238    -17.775394     16.359444
  H      10.493145    -17.187767     14.774616
  H      10.383502    -15.688817     17.266311
  H      11.056156    -13.774226     13.714838
  H      10.316593    -15.400952     13.736090
  H      11.764311    -12.837113     15.623761
  H      11.389788    -13.640217     17.176441
  C      13.998001     -9.220000      7.724999
  O      15.092206    -10.068401      7.951160
  C      14.446101     -7.794159      7.400636
  H      13.329681     -9.174595      8.584877
  H      13.436663     -9.637658      6.879092
  H      15.520033     -9.736925      8.768441
  H      15.047200     -7.410207      8.222191
  H      15.054713     -7.781365      6.498480
  H      13.582763     -7.147865      7.255018
  C      14.518001     -6.670000     12.632999
  S      13.188419     -7.782971     13.198862
  H      14.324364     -6.427596     11.588086
  H      15.477184     -7.175137     12.712589
  H      14.500917     -5.770082     13.239264
  H      13.933076     -8.903749     13.252465
  C      20.972000     -6.019000     10.963999
  C      20.059336     -7.049738     11.628336
  C      18.749900     -7.459334     10.880062
  O      18.062185     -8.312264     11.522691
  O      18.468636     -6.972710      9.788949
  H      20.586780     -5.000259     11.007275
  H      21.107474     -6.281633      9.916860
  H      21.947396     -6.027915     11.453501
  H      20.614656     -7.985895     11.739867
  H      19.770425     -6.724987     12.631785
  C      19.312999    -20.521999      7.175001
  C      18.228230    -19.538055      7.531078
  C      16.935302    -19.721675      7.050697
  C      18.464533    -18.443463      8.355173
  C      15.908325    -18.866564      7.396817
  C      17.444992    -17.577934      8.710086
  C      16.148912    -17.789508      8.248058
  O      15.109573    -16.990090      8.585240
  H      19.761228    -20.307815      6.204785
  H      18.904561    -21.530184      7.136887
  H      20.105745    -20.494431      7.919957
  H      16.726231    -20.559861      6.399587
  H      19.461276    -18.266059      8.735146
  H      14.905901    -19.024459      7.028926
  H      17.603099    -16.718188      9.345975
  H      15.344422    -16.349906      9.282427
  C      19.522001    -11.465000      7.842998
  C      19.061096    -10.632783      9.033197
  N      19.241949    -11.362289     10.263110
  C      20.231558    -11.127634     11.150115
  O      21.173405    -10.376937     10.969078
  N      20.117522    -11.910993     12.292303
  H      19.317472    -10.958064      6.899981
  H      19.046154    -12.443680      7.850144
  H      20.598968    -11.616877      7.915321
  H      19.634592     -9.708187      9.111808
  H      18.000642    -10.380921      8.940558
  H      18.621673    -12.147545     10.432859
  H      20.690016    -11.585920     13.055972
  H      19.175363    -12.152836     12.566514
114
Coordinates from ORCA-job 01_xtb_cit_react E -175.314452138960
  C      16.248864    -11.007966     12.518269
  C      15.003092    -11.120115     13.342963
  C      13.890272    -11.639082     12.793224
  C      13.812735    -11.855014     11.364140
  C      14.781345    -11.458539     10.542943
  C      16.003039    -10.736252     11.019832
  C      12.735710    -12.139131     13.605357
  O      12.710752    -11.950167     14.841495
  O      11.878569    -12.819334     12.972006
  O      15.888141     -9.375106     10.659014
  O      16.968984    -12.268754     12.661222
  C      16.285493    -13.431620     12.353387
  C      16.295443    -13.881735     10.907238
  O      17.216093    -13.468397     10.176679
  O      15.378596    -14.648721     10.508752
  C      15.695283    -14.160691     13.294014
  H      16.950818    -10.261669     12.901353
  H      15.066284    -10.951769     14.407390
  H      12.919981    -12.328150     10.983153
  H      14.682086    -11.577116      9.476259
  H      16.891219    -11.150054     10.529157
  H      16.779448     -8.886106     10.905101
  H      15.220575    -15.092844     13.040887
  H      15.683648    -13.853887     14.322164
  O      12.695059    -15.133522     11.410588
  H      13.618670    -14.987160     11.154923
  H      12.425546    -14.364630     11.933465
  C      12.785000    -13.909001      5.224001
  C      13.492138    -12.618990      5.661892
  N      14.870766    -12.778481      6.097376
  C      15.257980    -13.205850      7.325954
  N      14.503912    -14.000238      8.057820
  N      16.482572    -12.918088      7.727857
  H      13.453745    -14.682279      4.845952
  H      12.065785    -13.679087      4.441313
  H      12.229679    -14.352902      6.049357
  H      13.520192    -11.929697      4.816677
  H      12.911035    -12.143891      6.461078
  H      15.509955    -12.116231      5.693729
  H      14.807377    -14.272270      9.020600
  H      13.594813    -14.289381      7.752250
  H      16.808905    -13.199468      8.695259
  H      16.957847    -12.129914      7.328208
  C       8.412999    -16.813004     15.233001
  C       9.886415    -16.914690     15.672260
  N      10.392596    -15.690070     16.280985
  C      10.697213    -14.568804     15.568613
  N      10.528300    -14.523410     14.266603
  N      11.132552    -13.488067     16.193974
  H       7.736528    -17.001581     16.066622
  H       8.199868    -17.550873     14.459906
  H       8.204038    -15.823801     14.835262
  H      10.009984    -17.724400     16.394676
  H      10.520827    -17.152932     14.807932
  H      10.354680    -15.607039     17.283004
  H      11.036538    -13.724166     13.712826
  H      10.298976    -15.353320     13.750271
  H      11.725854    -12.764620     15.616782
  H      11.342436    -13.551418     17.174896
  C      13.998001     -9.220000      7.724999
  O      15.100938    -10.065719      7.943304
  C      14.445126     -7.802061      7.388415
  H      13.329681     -9.174595      8.584877
  H      13.432684     -9.641348      6.884949
  H      15.529970     -9.728656      8.760135
  H      15.047177     -7.412900      8.200989
  H      15.050004     -7.792084      6.483979
  H      13.579988     -7.163430      7.247002
  C      14.518001     -6.670000     12.632999
  S      13.218717     -7.817579     13.204181
  H      14.324364     -6.427596     11.588086
  H      15.486274     -7.146592     12.732461
  H      14.475509     -5.772597     13.241296
  H      13.910313     -8.855922     13.258628
  C      20.972000     -6.019000     10.963999
  C      20.039638     -7.052728     11.612055
  C      18.739250     -7.447093     10.834879
  O      18.034539     -8.285994     11.446076
  O      18.487053     -6.942150      9.743369
  H      20.586780     -5.000259     11.007275
  H      21.107966     -6.273710      9.913155
  H      21.946455     -6.030828     11.457760
  H      20.585495     -7.991313     11.730628
  H      19.730587     -6.725669     12.611807
  C      19.312999    -20.521999      7.175001
  C      18.227797    -19.533598      7.537814
  C      16.932737    -19.712855      7.059466
  C      18.465078    -18.439539      8.368654
  C      15.906148    -18.857005      7.411605
  C      17.443755    -17.571408      8.728192
  C      16.146759    -17.782613      8.267654
  O      15.107941    -16.980809      8.605300
  H      19.761228    -20.307815      6.204785
  H      18.903496    -21.529902      7.134964
  H      20.108039    -20.499258      7.918326
  H      16.721474    -20.547883      6.404430
  H      19.464097    -18.261587      8.745119
  H      14.901208    -19.015611      7.048394
  H      17.604523    -16.711728      9.367209
  H      15.347762    -16.342968      9.303720
  C      19.522001    -11.465000      7.842998
  C      19.072778    -10.622267      9.037604
  N      19.252684    -11.354165     10.267894
  C      20.243686    -11.123181     11.155620
  O      21.190099    -10.375447     10.974039
  N      20.127291    -11.910442     12.297032
  H      19.317472    -10.958064      6.899981
  H      19.042021    -12.441444      7.853185
  H      20.598773    -11.624033      7.907139
  H      19.653754     -9.699276      9.116409
  H      18.014296    -10.362304      8.941671
  H      18.628598    -12.138195     10.436835
  H      20.702356    -11.580800     13.057204
  H      19.183463    -12.145115     12.575357
114
Coordinates from ORCA-job 01_xtb_cit_react E -175.318046278920
  C      16.240270    -11.045847     12.508301
  C      14.996299    -11.161293     13.329131
  C      13.884876    -11.674120     12.778627
  C      13.803733    -11.882133     11.348278
  C      14.772178    -11.481381     10.527406
  C      15.995702    -10.765969     11.011942
  C      12.735872    -12.176278     13.592976
  O      12.719435    -11.993402     14.828950
  O      11.878941    -12.853185     12.961638
  O      15.881040     -9.408445     10.664268
  O      16.961949    -12.302798     12.645425
  C      16.278584    -13.460310     12.329921
  C      16.293473    -13.900446     10.883852
  O      17.217466    -13.485323     10.155407
  O      15.376463    -14.666946     10.485390
  C      15.685374    -14.195840     13.264222
  H      16.940140    -10.300018     12.895151
  H      15.061467    -10.999881     14.396045
  H      12.909839    -12.354304     10.969166
  H      14.672809    -11.594362      9.459433
  H      16.884992    -11.174829     10.519342
  H      16.778062     -8.917135     10.924233
  H      15.207566    -15.124895     13.002753
  H      15.674554    -13.896435     14.294216
  O      12.690398    -15.163652     11.391644
  H      13.614734    -15.012844     11.133738
  H      12.422923    -14.396936     11.916875
  C      12.785000    -13.909001      5.224001
  C      13.486231    -12.616893      5.657778
  N      14.864406    -12.776505      6.087588
  C      15.254426    -13.210224      7.311603
  N      14.496217    -14.010935      8.037896
  N      16.481530    -12.919692      7.710820
  H      13.453745    -14.682279      4.845952
  H      12.062926    -13.681760      4.443324
  H      12.233688    -14.352113      6.052298
  H      13.511018    -11.927412      4.812464
  H      12.904404    -12.142799      6.457459
  H      15.504329    -12.113864      5.679826
  H      14.801770    -14.287135      8.999258
  H      13.584711    -14.299512      7.729934
  H      16.808471    -13.206997      8.676177
  H      16.957175    -12.124009      7.310789
  C       8.412999    -16.813004     15.233001
  C       9.881919    -16.934826     15.661021
  N      10.404119    -15.729133     16.268781
  C      10.713351    -14.611713     15.557125
  N      10.535282    -14.560066     14.257245
  N      11.151282    -13.533603     16.184267
  H       7.736528    -17.001581     16.066622
  H       8.189934    -17.547201     14.458340
  H       8.210615    -15.819126     14.836782
  H      10.001888    -17.748531     16.378697
  H      10.503596    -17.172229     14.791514
  H      10.372538    -15.651440     17.270175
  H      11.038669    -13.759889     13.704701
  H      10.301786    -15.387328     13.739474
  H      11.738554    -12.809061     15.606929
  H      11.358729    -13.595640     17.165849
  C      13.998001     -9.220000      7.724999
  O      15.095038    -10.070523      7.936229
  C      14.453773     -7.793259      7.405445
  H      13.329681     -9.174595      8.584877
  H      13.431392     -9.634906      6.877937
  H      15.527498     -9.745241      8.760300
  H      15.061561     -7.415322      8.227764
  H      15.059625     -7.779383      6.501993
  H      13.591104     -7.141533      7.266227
  C      14.518001     -6.670000     12.632999
  S      13.191064     -7.792716     13.204785
  H      14.324364     -6.427596     11.588086
  H      15.475206     -7.163431     12.729023
  H      14.490648     -5.769607     13.239197
  H      13.917947     -8.901577     13.255851
  C      20.972000     -6.019001     10.963999
  C      20.046173     -7.048863     11.618293
  C      18.739979     -7.456391     10.849688
  O      18.034588     -8.315865     11.478246
  O      18.482670     -6.956775      9.748080
  H      20.586780     -5.000259     11.007275
  H      21.106802     -6.276710      9.914362
  H      21.947445     -6.030970     11.455827
  H      20.602267     -7.985503     11.734065
  H      19.741890     -6.720030     12.621504
  C      19.312999    -20.521999      7.175000
  C      18.226447    -19.539907      7.527037
  C      16.934757    -19.723308      7.043487
  C      18.462694    -18.446198      8.352767
  C      15.907920    -18.866981      7.387239
  C      17.443253    -17.580450      8.705799
  C      16.148035    -17.790609      8.240124
  O      15.109728    -16.990568      8.575724
  H      19.761228    -20.307815      6.204785
  H      18.907772    -21.531659      7.137293
  H      20.105483    -20.492013      7.920148
  H      16.726628    -20.561446      6.391682
  H      19.459538    -18.268874      8.733952
  H      14.905382    -19.025065      7.018482
  H      17.604996    -16.723133      9.343791
  H      15.347980    -16.353478      9.274840
  C      19.522001    -11.465000      7.842998
  C      19.071557    -10.636201      9.039076
  N      19.247950    -11.370687     10.266069
  C      20.233855    -11.139206     11.158498
  O      21.174686    -10.386471     10.984782
  N      20.119129    -11.930332     12.295963
  H      19.317472    -10.958064      6.899981
  H      19.044374    -12.441998      7.844907
  H      20.598800    -11.622837      7.907546
  H      19.654358     -9.714942      9.119318
  H      18.014532    -10.371131      8.937690
  H      18.627576    -12.153491     10.428321
  H      20.691585    -11.603298     13.059591
  H      19.176909    -12.169927     12.569078
114
Coordinates from ORCA-job 01_xtb_cit_react E -175.308448845220
  C      16.236163    -11.028368     12.516280
  C      14.991730    -11.152598     13.338658
  C      13.876750    -11.671306     12.786870
  C      13.795108    -11.872597     11.360499
  C      14.757400    -11.466421     10.547574
  C      15.984297    -10.752303     11.023319
  C      12.724562    -12.186071     13.591766
  O      12.701620    -12.012671     14.827809
  O      11.874167    -12.867833     12.949459
  O      15.866919     -9.393334     10.673811
  O      16.957652    -12.285054     12.651572
  C      16.276114    -13.448674     12.340878
  C      16.294330    -13.894536     10.894717
  O      17.212805    -13.478762     10.165419
  O      15.378766    -14.662395     10.493189
  C      15.686661    -14.184333     13.278788
  H      16.934021    -10.280002     12.900484
  H      15.061004    -11.002879     14.399987
  H      12.906442    -12.345277     10.976754
  H      14.663152    -11.571989      9.490927
  H      16.873296    -11.157525     10.527909
  H      16.740492     -8.891402     10.921192
  H      15.223361    -15.117552     13.019008
  H      15.661009    -13.873483     14.314306
  O      12.694354    -15.138509     11.373240
  H      13.617542    -14.994649     11.121454
  H      12.421898    -14.383919     11.902337
  C      12.785000    -13.909001      5.224001
  C      13.496497    -12.619896      5.651675
  N      14.874537    -12.778334      6.088239
  C      15.264510    -13.207327      7.316344
  N      14.513051    -13.984713      8.055735
  N      16.485942    -12.933393      7.715924
  H      13.453745    -14.682279      4.845952
  H      12.063512    -13.678310      4.445635
  H      12.235581    -14.346849      6.054632
  H      13.525288    -11.939015      4.801773
  H      12.914829    -12.139421      6.445685
  H      15.516286    -12.131448      5.676664
  H      14.814659    -14.268760      9.015076
  H      13.606842    -14.263149      7.753738
  H      16.808155    -13.210942      8.682749
  H      16.964339    -12.153946      7.317734
  C       8.412999    -16.813004     15.233001
  C       9.867938    -16.953398     15.641906
  N      10.407598    -15.768760     16.240896
  C      10.720471    -14.647697     15.529361
  N      10.545690    -14.590312     14.232311
  N      11.164218    -13.575431     16.159051
  H       7.736528    -17.001581     16.066622
  H       8.183091    -17.526280     14.462567
  H       8.227678    -15.827944     14.848410
  H       9.978787    -17.764186     16.356255
  H      10.473877    -17.190442     14.765765
  H      10.371684    -15.682955     17.248762
  H      11.047900    -13.784865     13.682859
  H      10.317478    -15.416363     13.713234
  H      11.743314    -12.841623     15.589018
  H      11.377057    -13.643933     17.141514
  C      13.998001     -9.220000      7.724999
  O      15.094572    -10.047870      7.984668
  C      14.433763     -7.808421      7.366483
  H      13.329681     -9.174595      8.584877
  H      13.442015     -9.655729      6.891928
  H      15.515419     -9.712442      8.786910
  H      15.016707     -7.402768      8.177877
  H      15.053525     -7.814213      6.472221
  H      13.573017     -7.180814      7.198982
  C      14.518001     -6.670000     12.632998
  S      13.189058     -7.749505     13.231652
  H      14.324364     -6.427596     11.588086
  H      15.488851     -7.157131     12.710444
  H      14.492978     -5.765986     13.230071
  H      13.943708     -8.909200     13.275536
  C      20.972000     -6.019000     10.963999
  C      20.035704     -7.034643     11.623644
  C      18.738370     -7.423623     10.858407
  O      18.036740     -8.221436     11.466361
  O      18.503266     -6.962822      9.798298
  H      20.586780     -5.000259     11.007275
  H      21.121753     -6.285997      9.927053
  H      21.933580     -6.037145     11.465146
  H      20.559037     -7.982538     11.759716
  H      19.741716     -6.696800     12.608436
  C      19.312999    -20.521999      7.175001
  C      18.226087    -19.537657      7.531574
  C      16.934642    -19.719913      7.049966
  C      18.458490    -18.444245      8.359076
  C      15.906903    -18.864711      7.394234
  C      17.437288    -17.578950      8.713271
  C      16.144261    -17.788465      8.246005
  O      15.106323    -16.984856      8.577031
  H      19.761228    -20.307815      6.204785
  H      18.905271    -21.529746      7.136667
  H      20.105169    -20.494523      7.919324
  H      16.726260    -20.557623      6.399904
  H      19.451754    -18.268785      8.743244
  H      14.907246    -19.022012      7.023268
  H      17.593435    -16.721827      9.352720
  H      15.342983    -16.346458      9.275401
  C      19.522001    -11.465000      7.842998
  C      19.061184    -10.620386      9.036662
  N      19.241634    -11.361380     10.262814
  C      20.229278    -11.129431     11.157203
  O      21.166886    -10.374815     10.986086
  N      20.110455    -11.918547     12.298051
  H      19.317472    -10.958064      6.899981
  H      19.043598    -12.443153      7.855045
  H      20.598798    -11.619008      7.915581
  H      19.628781     -9.695775      9.126653
  H      18.000126    -10.374928      8.941856
  H      18.616059    -12.150930     10.431544
  H      20.682554    -11.595413     13.064362
  H      19.161982    -12.159043     12.571587
114
Coordinates from ORCA-job 01_xtb_cit_react E -175.318367785560
  C      16.227840    -11.034056     12.510949
  C      14.983152    -11.151119     13.331653
  C      13.871732    -11.668391     12.779301
  C      13.790578    -11.874814     11.349270
  C      14.757614    -11.472141     10.530794
  C      15.981035    -10.757138     11.014653
  C      12.724105    -12.177593     13.590845
  O      12.705874    -11.997035     14.827598
  O      11.871841    -12.858693     12.955977
  O      15.863370     -9.401229     10.667551
  O      16.951064    -12.290889     12.649319
  C      16.268406    -13.450473     12.335122
  C      16.288179    -13.895707     10.888711
  O      17.210679    -13.480081     10.160565
  O      15.373470    -14.665777     10.489039
  C      15.671199    -14.183717     13.272036
  H      16.925509    -10.284990     12.896415
  H      15.049465    -10.993953     14.397772
  H      12.898694    -12.348997     10.969123
  H      14.662588    -11.584004      9.464404
  H      16.873152    -11.162806     10.520110
  H      16.737867     -8.908459     10.926149
  H      15.200215    -15.113853     13.010774
  H      15.643141    -13.874174     14.305785
  O      12.684870    -15.150852     11.379529
  H      13.608367    -15.004695     11.126607
  H      12.415176    -14.388434     11.907608
  C      12.785000    -13.909001      5.224001
  C      13.489200    -12.616855      5.654146
  N      14.865881    -12.775235      6.089224
  C      15.255347    -13.209206      7.313518
  N      14.495604    -13.997029      8.045566
  N      16.482040    -12.930549      7.710328
  H      13.453745    -14.682279      4.845952
  H      12.062157    -13.681237      4.444776
  H      12.235661    -14.350283      6.054091
  H      13.517536    -11.932466      4.805861
  H      12.906466    -12.138433      6.449377
  H      15.510707    -12.114571      5.677576
  H      14.802023    -14.278991      9.004723
  H      13.585202    -14.277804      7.740886
  H      16.805246    -13.209817      8.677856
  H      16.960826    -12.142832      7.308435
  C       8.412999    -16.813004     15.233001
  C       9.879458    -16.946671     15.655604
  N      10.411849    -15.746151     16.262355
  C      10.720577    -14.627302     15.549814
  N      10.545415    -14.577233     14.249853
  N      11.157749    -13.546861     16.178281
  H       7.736528    -17.001581     16.066623
  H       8.185232    -17.537806     14.456617
  H       8.219244    -15.819081     14.843295
  H       9.995334    -17.760903     16.373490
  H      10.495595    -17.186432     14.783274
  H      10.371614    -15.658599     17.266196
  H      11.042660    -13.773299     13.697276
  H      10.318909    -15.407779     13.730626
  H      11.736831    -12.817524     15.601386
  H      11.368249    -13.608896     17.160262
  C      13.998001     -9.220000      7.724999
  O      15.097173    -10.054122      7.961293
  C      14.439572     -7.798078      7.385684
  H      13.329681     -9.174595      8.584877
  H      13.438093     -9.648557      6.884527
  H      15.524091     -9.715537      8.776347
  H      15.032598     -7.403011      8.204625
  H      15.054698     -7.791805      6.488543
  H      13.574913     -7.160592      7.229340
  C      14.518001     -6.670000     12.632998
  S      13.196330     -7.786608     13.216830
  H      14.324364     -6.427596     11.588086
  H      15.480260     -7.165775     12.716074
  H      14.491840     -5.768601     13.238198
  H      13.929993     -8.906441     13.262269
  C      20.972000     -6.019000     10.963999
  C      20.048046     -7.036221     11.628083
  C      18.739393     -7.420992     10.870098
  O      18.031207     -8.258962     11.493553
  O      18.481727     -6.929659      9.767099
  H      20.586780     -5.000259     11.007275
  H      21.103875     -6.283310      9.921216
  H      21.944620     -6.034144     11.452023
  H      20.587352     -7.979073     11.744343
  H      19.760811     -6.705862     12.625067
  C      19.312999    -20.521999      7.175001
  C      18.224504    -19.540582      7.528933
  C      16.933147    -19.725793      7.047467
  C      18.458032    -18.446233      8.355885
  C      15.904864    -18.871379      7.391932
  C      17.436331    -17.582016      8.709506
  C      16.142679    -17.793876      8.243138
  O      15.104348    -16.992402      8.575433
  H      19.761228    -20.307815      6.204785
  H      18.908875    -21.531703      7.137394
  H      20.105417    -20.491716      7.919715
  H      16.725552    -20.565239      6.398117
  H      19.452747    -18.269187      8.739489
  H      14.904007    -19.030155      7.021452
  H      17.592961    -16.723615      9.347334
  H      15.341380    -16.353302      9.273622
  C      19.522001    -11.465000      7.842998
  C      19.068001    -10.632616      9.037716
  N      19.239377    -11.368823     10.264810
  C      20.224873    -11.139558     11.158507
  O      21.165353    -10.387471     10.987589
  N      20.104300    -11.927356     12.298566
  H      19.317472    -10.958064      6.899981
  H      19.043479    -12.442032      7.848734
  H      20.597412    -11.622190      7.910248
  H      19.648211     -9.713225      9.121779
  H      18.010668    -10.366160      8.936464
  H      18.616497    -12.150730     10.428677
  H      20.676004    -11.602743     13.062756
  H      19.160618    -12.166536     12.572959
114
Coordinates from ORCA-job 01_xtb_cit_react E -175.317614767490
  C      16.228809    -11.053382     12.498726
  C      14.981000    -11.162622     13.315979
  C      13.871110    -11.674127     12.762676
  C      13.793150    -11.885473     11.330837
  C      14.763816    -11.487876     10.511302
  C      15.992638    -10.777149     10.999297
  C      12.723853    -12.180444     13.574659
  O      12.705166    -11.996728     14.809144
  O      11.873756    -12.862344     12.940685
  O      15.882475     -9.419850     10.653655
  O      16.950980    -12.309709     12.642632
  C      16.269472    -13.465900     12.323682
  C      16.294809    -13.908641     10.879946
  O      17.223300    -13.495793     10.155001
  O      15.379615    -14.675551     10.478604
  C      15.677817    -14.204918     13.254685
  H      16.927467    -10.305239     12.885813
  H      15.045281    -11.004469     14.383021
  H      12.899723    -12.358584     10.952615
  H      14.668007    -11.602091      9.445548
  H      16.878982    -11.187976     10.506824
  H      16.781776     -8.906789     10.919324
  H      15.199442    -15.133503     12.989923
  H      15.664394    -13.904927     14.283566
  O      12.693425    -15.172932     11.395029
  H      13.615671    -15.019541     11.129021
  H      12.422857    -14.406684     11.916698
  C      12.785000    -13.909001      5.224001
  C      13.482185    -12.615449      5.660121
  N      14.861554    -12.769325      6.090101
  C      15.253279    -13.210090      7.310923
  N      14.499087    -14.016859      8.033121
  N      16.478914    -12.917522      7.712084
  H      13.453745    -14.682279      4.845952
  H      12.063824    -13.680429      4.443467
  H      12.233236    -14.352986      6.051077
  H      13.505494    -11.924327      4.815579
  H      12.895994    -12.145566      6.459710
  H      15.495139    -12.102487      5.691477
  H      14.803146    -14.295995      8.993699
  H      13.589477    -14.312293      7.719175
  H      16.809315    -13.209880      8.674165
  H      16.953609    -12.122938      7.316054
  C       8.412999    -16.813004     15.233001
  C       9.877687    -16.933372     15.652667
  N      10.404772    -15.734375     16.251646
  C      10.711439    -14.618310     15.535313
  N      10.530897    -14.568766     14.235536
  N      11.145214    -13.537617     16.158509
  H       7.736528    -17.001581     16.066622
  H       8.192376    -17.546570     14.463611
  H       8.211546    -15.825166     14.833091
  H       9.997714    -17.743380     16.371296
  H      10.493427    -17.171824     14.780436
  H      10.376115    -15.653402     17.250468
  H      11.032334    -13.767264     13.683000
  H      10.309321    -15.397516     13.719788
  H      11.727640    -12.809567     15.580137
  H      11.348181    -13.593955     17.140518
  C      13.998001     -9.220000      7.724999
  O      15.091365    -10.072836      7.935544
  C      14.462995     -7.790868      7.410101
  H      13.329681     -9.174595      8.584877
  H      13.424982     -9.631256      6.877541
  H      15.525164     -9.753057      8.759137
  H      15.078253     -7.419461      8.236729
  H      15.067858     -7.781524      6.506112
  H      13.602569     -7.127381      7.273359
  C      14.518001     -6.670000     12.632999
  S      13.198825     -7.795935     13.214144
  H      14.324364     -6.427596     11.588086
  H      15.475124     -7.167400     12.713436
  H      14.494871     -5.769986     13.242430
  H      13.908576     -8.906626     13.250914
  C      20.972000     -6.019001     10.963999
  C      20.016872     -7.039372     11.605509
  C      18.711948     -7.434177     10.821499
  O      17.994679     -8.286435     11.458142
  O      18.479382     -6.952299      9.731103
  H      20.586780     -5.000259     11.007275
  H      21.135786     -6.276137      9.910672
  H      21.938240     -6.036251     11.488025
  H      20.557939     -7.985275     11.731963
  H      19.700653     -6.704337     12.610003
  C      19.312999    -20.521999      7.175001
  C      18.229600    -19.536750      7.526457
  C      16.939047    -19.710312      7.033839
  C      18.469440    -18.447880      8.356638
  C      15.915756    -18.848105      7.374435
  C      17.453956    -17.577849      8.708070
  C      16.159072    -17.776266      8.233322
  O      15.123885    -16.971693      8.565082
  H      19.761228    -20.307815      6.204785
  H      18.903940    -21.530846      7.135271
  H      20.106228    -20.495691      7.920323
  H      16.729484    -20.543777      6.374770
  H      19.466620    -18.277898      8.742715
  H      14.913809    -18.997409      6.997986
  H      17.616343    -16.725353      9.351423
  H      15.356664    -16.333457      9.264351
  C      19.522001    -11.465000      7.842998
  C      19.072715    -10.638352      9.040364
  N      19.245044    -11.375105     10.267380
  C      20.223145    -11.136029     11.168247
  O      21.163241    -10.382177     10.998554
  N      20.103495    -11.925390     12.307039
  H      19.317472    -10.958064      6.899981
  H      19.041075    -12.441118      7.844555
  H      20.598500    -11.625618      7.908169
  H      19.652872     -9.716603      9.124044
  H      18.017725    -10.375365      8.931097
  H      18.624993    -12.160427     10.428481
  H      20.672131    -11.601169     13.075288
  H      19.158611    -12.168424     12.572656
114
Coordinates from ORCA-job 01_xtb_cit_react E -175.318864685890
  C      16.231782    -11.051558     12.498451
  C      14.985672    -11.162969     13.315893
  C      13.874242    -11.673884     12.762931
  C      13.795009    -11.882287     11.331608
  C      14.765361    -11.484355     10.512520
  C      15.992158    -10.772687     11.001085
  C      12.724572    -12.175473     13.577840
  O      12.705248    -11.987587     14.813383
  O      11.873196    -12.858583     12.945936
  O      15.879611     -9.414494     10.654943
  O      16.953374    -12.307741     12.642555
  C      16.271589    -13.464891     12.324669
  C      16.295464    -13.909588     10.880080
  O      17.222326    -13.495669     10.154599
  O      15.381297    -14.678245     10.478562
  C      15.676539    -14.201332     13.258359
  H      16.930339    -10.304495     12.886439
  H      15.050307    -11.003221     14.383057
  H      12.900908    -12.353867     10.952874
  H      14.670357    -11.599816      9.445317
  H      16.880027    -11.182434     10.506658
  H      16.771080     -8.904385     10.918559
  H      15.201644    -15.130152     12.995053
  H      15.657696    -13.896887     14.288803
  O      12.694846    -15.173333     11.393320
  H      13.616160    -15.019768     11.127615
  H      12.425040    -14.405977     11.915626
  C      12.785000    -13.909001      5.224001
  C      13.483839    -12.616214      5.658885
  N      14.862262    -12.771323      6.089659
  C      15.253569    -13.213614      7.309968
  N      14.498304    -14.015294      8.033986
  N      16.478841    -12.925220      7.710146
  H      13.453745    -14.682279      4.845952
  H      12.064071    -13.680163      4.443023
  H      12.232782    -14.352413      6.051352
  H      13.508127    -11.926732      4.813610
  H      12.899169    -12.145233      6.457665
  H      15.498717    -12.101328      5.689465
  H      14.804010    -14.295791      8.993023
  H      13.590519    -14.307744      7.722212
  H      16.808315    -13.214213      8.673305
  H      16.954330    -12.130294      7.313451
  C       8.412999    -16.813004     15.233001
  C       9.881795    -16.932310     15.660791
  N      10.404366    -15.723712     16.265303
  C      10.708849    -14.606485     15.548735
  N      10.529975    -14.561051     14.248377
  N      11.141883    -13.522620     16.171528
  H       7.736528    -17.001581     16.066623
  H       8.193049    -17.548607     14.461003
  H       8.210833    -15.822212     14.833808
  H      10.002299    -17.744271     16.380550
  H      10.504040    -17.172039     14.790955
  H      10.366850    -15.636922     17.267157
  H      11.032218    -13.761154     13.693360
  H      10.311879    -15.393962     13.732537
  H      11.726806    -12.796643     15.590418
  H      11.346907    -13.576976     17.154684
  C      13.998001     -9.220000      7.724999
  O      15.095513    -10.065585      7.941711
  C      14.449572     -7.796002      7.397857
  H      13.329681     -9.174595      8.584877
  H      13.428613     -9.637879      6.882159
  H      15.527860     -9.742522      8.763942
  H      15.045795     -7.409347      8.219479
  H      15.062536     -7.785760      6.498767
  H      13.586615     -7.154159      7.247680
  C      14.518001     -6.670000     12.632999
  S      13.196952     -7.788137     13.216920
  H      14.324364     -6.427596     11.588086
  H      15.474844     -7.167395     12.714185
  H      14.494657     -5.771150     13.240705
  H      13.911490     -8.907316     13.249229
  C      20.972000     -6.019000     10.963999
  C      20.038143     -7.040990     11.617795
  C      18.728571     -7.427666     10.855758
  O      18.020275     -8.268784     11.484812
  O      18.482419     -6.938198      9.756498
  H      20.586780     -5.000259     11.007275
  H      21.110867     -6.279096      9.918161
  H      21.941809     -6.036096     11.459669
  H      20.576734     -7.985618     11.731962
  H      19.744089     -6.710022     12.617926
  C      19.312999    -20.521999      7.175000
  C      18.228482    -19.537681      7.527471
  C      16.938336    -19.713119      7.037280
  C      18.466310    -18.448884      8.358993
  C      15.914218    -18.852418      7.378894
  C      17.449616    -17.579772      8.710936
  C      16.156021    -17.779663      8.236241
  O      15.120689    -16.974684      8.566801
  H      19.761228    -20.307815      6.204785
  H      18.905649    -21.530968      7.136187
  H      20.106024    -20.494496      7.919828
  H      16.728999    -20.548323      6.381863
  H      19.461675    -18.279035      8.746500
  H      14.913423    -19.002583      7.002611
  H      17.610897    -16.726524      9.353737
  H      15.354664    -16.335599      9.265749
  C      19.522001    -11.465000      7.842998
  C      19.075819    -10.636804      9.040267
  N      19.247627    -11.374690     10.265655
  C      20.226757    -11.139043     11.165137
  O      21.165637    -10.384941     10.996692
  N      20.104394    -11.927965     12.304157
  H      19.317472    -10.958064      6.899981
  H      19.040434    -12.440492      7.844387
  H      20.597910    -11.627116      7.906410
  H      19.660175     -9.717778      9.123550
  H      18.021112    -10.365778      8.933888
  H      18.627027    -12.158216     10.426034
  H      20.672349    -11.602353     13.072346
  H      19.159689    -12.168531     12.571339
114
Coordinates from ORCA-job 01_xtb_cit_react E -175.318955406950
  C      16.217757    -11.050240     12.495959
  C      14.970119    -11.163118     13.310521
  C      13.860523    -11.680833     12.754824
  C      13.785613    -11.891299     11.324648
  C      14.757159    -11.491876     10.509062
  C      15.977564    -10.774225     10.998500
  C      12.710063    -12.184303     13.566920
  O      12.689557    -11.994165     14.801712
  O      11.858379    -12.868486     12.934948
  O      15.859142     -9.418488     10.651794
  O      16.943088    -12.303998     12.645350
  C      16.265083    -13.465201     12.326667
  C      16.288425    -13.909818     10.880816
  O      17.212594    -13.493425     10.155703
  O      15.376888    -14.682984     10.480211
  C      15.669969    -14.202354     13.260504
  H      16.912515    -10.298473     12.883117
  H      15.031878    -10.999930     14.377807
  H      12.895242    -12.367321     10.943173
  H      14.667051    -11.609414      9.442491
  H      16.869676    -11.179623     10.505210
  H      16.737369     -8.918981     10.909941
  H      15.201170    -15.134073     12.998788
  H      15.640241    -13.895684     14.294787
  O      12.688209    -15.177362     11.377501
  H      13.608996    -15.023994     11.118378
  H      12.415617    -14.410955     11.898489
  C      12.785000    -13.909001      5.224001
  C      13.488951    -12.616728      5.653321
  N      14.866377    -12.775899      6.086270
  C      15.255857    -13.215964      7.308632
  N      14.498440    -14.011982      8.035761
  N      16.481178    -12.931512      7.708120
  H      13.453745    -14.682279      4.845952
  H      12.062124    -13.681385      4.444639
  H      12.234984    -14.350038      6.053989
  H      13.516619    -11.932254      4.805055
  H      12.908177    -12.138788      6.450056
  H      15.507800    -12.104803      5.683534
  H      14.803396    -14.293882      8.994143
  H      13.592691    -14.301807      7.725705
  H      16.805121    -13.217389      8.673271
  H      16.953538    -12.137403      7.311155
  C       8.412999    -16.813004     15.233001
  C       9.877755    -16.943112     15.654292
  N      10.410113    -15.742456     16.252942
  C      10.709438    -14.623809     15.536440
  N      10.527761    -14.577372     14.237478
  N      11.137531    -13.537460     16.159304
  H       7.736528    -17.001581     16.066622
  H       8.186904    -17.538639     14.458489
  H       8.218265    -15.820802     14.841198
  H       9.994340    -17.753917     16.375115
  H      10.492233    -17.186170     14.783091
  H      10.375668    -15.655205     17.255597
  H      11.023596    -13.775882     13.682429
  H      10.311495    -15.411779     13.723032
  H      11.715212    -12.807653     15.579435
  H      11.344088    -13.591776     17.141784
  C      13.998001     -9.220000      7.724999
  O      15.101925    -10.053240      7.950870
  C      14.436227     -7.796591      7.384649
  H      13.329681     -9.174595      8.584877
  H      13.433221     -9.649045      6.887254
  H      15.529820     -9.724150      8.772210
  H      15.043804     -7.403112      8.199629
  H      15.039529     -7.794421      6.479286
  H      13.567251     -7.152044      7.241476
  C      14.518001     -6.670000     12.632999
  S      13.190498     -7.772487     13.241165
  H      14.324364     -6.427596     11.588086
  H      15.474567     -7.174824     12.716278
  H      14.500690     -5.765822     13.235018
  H      13.906031     -8.892452     13.247257
  C      20.972000     -6.019000     10.963999
  C      20.036280     -7.042641     11.612593
  C      18.731177     -7.420449     10.838624
  O      18.018196     -8.269471     11.449749
  O      18.488814     -6.918818      9.740972
  H      20.586780     -5.000259     11.007275
  H      21.117482     -6.276482      9.916672
  H      21.941132     -6.035312     11.465413
  H      20.574868     -7.986777     11.725293
  H      19.735395     -6.714853     12.612349
  C      19.312999    -20.521999      7.175001
  C      18.226542    -19.537958      7.527484
  C      16.937477    -19.714422      7.037032
  C      18.461421    -18.448303      8.360511
  C      15.912158    -18.855217      7.377890
  C      17.442126    -17.579952      8.711476
  C      16.150606    -17.782354      8.234973
  O      15.114574    -16.977604      8.564848
  H      19.761228    -20.307815      6.204785
  H      18.907673    -21.531188      7.136745
  H      20.105504    -20.493352      7.919431
  H      16.729340    -20.550215      6.383299
  H      19.455025    -18.277997      8.750249
  H      14.912517    -19.007584      7.001348
  H      17.601105    -16.726460      9.355970
  H      15.351694    -16.341284      9.266541
  C      19.522001    -11.465000      7.842998
  C      19.080116    -10.632587      9.043050
  N      19.246215    -11.373571     10.266259
  C      20.221160    -11.137170     11.169974
  O      21.161336    -10.382046     11.006827
  N      20.097045    -11.927633     12.306919
  H      19.317472    -10.958064      6.899981
  H      19.037531    -12.439383      7.848083
  H      20.597085    -11.631732      7.902265
  H      19.672646     -9.719664      9.127662
  H      18.026422    -10.349926      8.938340
  H      18.622377    -12.154842     10.426420
  H      20.665699    -11.602853     13.073404
  H      19.154736    -12.170164     12.578848
114
Coordinates from ORCA-job 01_xtb_cit_react E -175.319240222550
  C      16.220526    -11.052326     12.490790
  C      14.972810    -11.163837     13.305181
  C      13.862038    -11.678057     12.752093
  C      13.786831    -11.887609     11.320841
  C      14.759005    -11.490304     10.503616
  C      15.981473    -10.774774     10.993615
  C      12.712690    -12.182886     13.564319
  O      12.693071    -11.993179     14.799218
  O      11.861929    -12.867706     12.932941
  O      15.864191     -9.418255     10.649083
  O      16.942896    -12.307104     12.641108
  C      16.263144    -13.466253     12.321107
  C      16.290030    -13.911455     10.876181
  O      17.215273    -13.493601     10.152271
  O      15.380567    -14.686306     10.473974
  C      15.665693    -14.203027     13.253694
  H      16.917014    -10.302384     12.878033
  H      15.036499    -11.002668     14.373031
  H      12.894881    -12.362025     10.939966
  H      14.668546    -11.608869      9.436570
  H      16.872214    -11.180550     10.499001
  H      16.745237     -8.912220     10.908175
  H      15.194373    -15.133136     12.990019
  H      15.640542    -13.898109     14.286379
  O      12.692935    -15.182643     11.382789
  H      13.612573    -15.026796     11.117600
  H      12.421437    -14.414811     11.902167
  C      12.785000    -13.909001      5.224001
  C      13.486065    -12.615305      5.652510
  N      14.863661    -12.770776      6.085843
  C      15.253726    -13.214068      7.306371
  N      14.496378    -14.012014      8.031703
  N      16.479500    -12.930515      7.705593
  H      13.453745    -14.682279      4.845952
  H      12.061587    -13.682706      4.444798
  H      12.235573    -14.350278      6.054056
  H      13.512469    -11.930964      4.804014
  H      12.903038    -12.139029      6.448590
  H      15.503003    -12.101911      5.684328
  H      14.803175    -14.296408      8.988473
  H      13.591677    -14.306579      7.718568
  H      16.805679    -13.216630      8.669870
  H      16.951635    -12.134086      7.311064
  C       8.412999    -16.813004     15.233001
  C       9.880111    -16.940679     15.656682
  N      10.411048    -15.737185     16.257006
  C      10.710834    -14.619419     15.539401
  N      10.529896    -14.574738     14.239438
  N      11.139448    -13.533122     16.161032
  H       7.736528    -17.001581     16.066623
  H       8.188496    -17.542837     14.458934
  H       8.216000    -15.820524     14.838435
  H       9.997550    -17.752043     16.377241
  H      10.497061    -17.184255     14.785964
  H      10.373747    -15.648334     17.259156
  H      11.027029    -13.773719     13.684514
  H      10.317500    -15.410446     13.724660
  H      11.719525    -12.804955     15.580324
  H      11.345835    -13.586901     17.143805
  C      13.998001     -9.220000      7.724999
  O      15.102046    -10.053622      7.948494
  C      14.437202     -7.795553      7.385055
  H      13.329681     -9.174595      8.584877
  H      13.430955     -9.647862      6.886950
  H      15.532936     -9.723307      8.768430
  H      15.031911     -7.398482      8.203708
  H      15.050205     -7.789029      6.486545
  H      13.569939     -7.159097      7.229605
  C      14.518001     -6.670000     12.632999
  S      13.194470     -7.777438     13.235466
  H      14.324364     -6.427596     11.588086
  H      15.473530     -7.173311     12.716317
  H      14.498300     -5.767874     13.236910
  H      13.897797     -8.905682     13.226332
  C      20.972000     -6.019000     10.963999
  C      20.034113     -7.039540     11.613441
  C      18.725956     -7.418119     10.841640
  O      18.015034     -8.268464     11.456181
  O      18.480349     -6.919357      9.746050
  H      20.586780     -5.000259     11.007275
  H      21.116353     -6.277580      9.918103
  H      21.940170     -6.037168     11.465645
  H      20.572230     -7.985305     11.728734
  H      19.734824     -6.707953     12.612731
  C      19.312999    -20.521999      7.175000
  C      18.228285    -19.536830      7.527738
  C      16.939687    -19.709375      7.034519
  C      18.464901    -18.449503      8.362748
  C      15.915925    -18.848129      7.375263
  C      17.447516    -17.579604      8.713747
  C      16.156003    -17.777394      8.234829
  O      15.121785    -16.970302      8.563689
  H      19.761228    -20.307815      6.204785
  H      18.906120    -21.530795      7.136029
  H      20.105900    -20.495024      7.919461
  H      16.730933    -20.543127      6.377694
  H      19.458608    -18.282372      8.754061
  H      14.916446    -18.996845      6.996363
  H      17.606871    -16.727508      9.359244
  H      15.358097    -16.333635      9.265338
  C      19.522001    -11.465000      7.842998
  C      19.085165    -10.632516      9.043251
  N      19.250262    -11.374282     10.266229
  C      20.222697    -11.137671     11.172297
  O      21.162467    -10.382729     11.010750
  N      20.094530    -11.927225     12.309855
  H      19.317472    -10.958064      6.899981
  H      19.035292    -12.438095      7.846758
  H      20.596768    -11.634802      7.900313
  H      19.682007     -9.721757      9.127053
  H      18.033514    -10.344382      8.937941
  H      18.625798    -12.155055     10.424815
  H      20.660275    -11.602151     13.078650
  H      19.149954    -12.168480     12.576995
114
Coordinates from ORCA-job 01_xtb_cit_react E -175.319415591910
  C      16.227317    -11.060785     12.482697
  C      14.980653    -11.166442     13.300703
  C      13.868380    -11.677327     12.745964
  C      13.789549    -11.883464     11.313962
  C      14.761940    -11.490204     10.495692
  C      15.989803    -10.778997     10.986094
  C      12.722092    -12.184821     13.561378
  O      12.704396    -11.996654     14.796552
  O      11.873047    -12.871033     12.930387
  O      15.874456     -9.420812     10.644429
  O      16.944693    -12.317788     12.632839
  C      16.261755    -13.472459     12.308836
  C      16.296228    -13.918604     10.865448
  O      17.224539    -13.500399     10.143812
  O      15.389413    -14.695160     10.461001
  C      15.658205    -14.207925     13.238062
  H      16.927099    -10.314720     12.871485
  H      15.047261    -11.011864     14.366063
  H      12.894721    -12.353701     10.934879
  H      14.668896    -11.609278      9.428991
  H      16.876891    -11.186131     10.486426
  H      16.760828     -8.900446     10.906300
  H      15.182880    -15.134900     12.971095
  H      15.634166    -13.903920     14.269334
  O      12.705000    -15.196368     11.392309
  H      13.621226    -15.035679     11.114891
  H      12.435465    -14.426593     11.909302
  C      12.785000    -13.909001      5.224001
  C      13.480002    -12.612933      5.652037
  N      14.858140    -12.761751      6.085015
  C      15.249848    -13.212373      7.301439
  N      14.493183    -14.014249      8.022557
  N      16.475556    -12.928856      7.701594
  H      13.453745    -14.682279      4.845952
  H      12.061066    -13.684582      4.444828
  H      12.235936    -14.351063      6.053697
  H      13.503512    -11.927989      4.803619
  H      12.892668    -12.140866      6.447794
  H      15.492656    -12.087436      5.690063
  H      14.803658    -14.303982      8.976355
  H      13.590436    -14.316231      7.703760
  H      16.806170    -13.219455      8.663095
  H      16.947250    -12.130334      7.309868
  C       8.412999    -16.813004     15.233001
  C       9.881053    -16.939522     15.655701
  N      10.414953    -15.736981     16.255988
  C      10.716343    -14.619520     15.537653
  N      10.535938    -14.575491     14.237314
  N      11.145478    -13.532429     16.158541
  H       7.736528    -17.001581     16.066623
  H       8.189747    -17.544782     14.460209
  H       8.215385    -15.820972     14.836120
  H       9.998606    -17.751829     16.375274
  H      10.497728    -17.183329     14.784328
  H      10.372043    -15.645984     17.257104
  H      11.035769    -13.774792     13.685042
  H      10.330598    -15.412418     13.721772
  H      11.730148    -12.806395     15.579872
  H      11.348072    -13.585540     17.142486
  C      13.998001     -9.220000      7.724999
  O      15.099837    -10.056194      7.947151
  C      14.442908     -7.792876      7.390351
  H      13.329681     -9.174595      8.584877
  H      13.428221     -9.644020      6.884735
  H      15.535097     -9.728055      8.765017
  H      15.038302     -7.398167      8.213613
  H      15.058085     -7.786903      6.493172
  H      13.576186     -7.151792      7.233259
  C      14.518001     -6.670000     12.632998
  S      13.203039     -7.778328     13.241545
  H      14.324364     -6.427596     11.588086
  H      15.471701     -7.175153     12.707254
  H      14.504881     -5.769943     13.239724
  H      13.905930     -8.900382     13.213333
  C      20.972000     -6.019000     10.963999
  C      20.034779     -7.042020     11.612907
  C      18.719145     -7.413133     10.858277
  O      18.013493     -8.261234     11.483234
  O      18.468742     -6.919151      9.762731
  H      20.586780     -5.000259     11.007275
  H      21.114642     -6.277493      9.918742
  H      21.939055     -6.038899     11.463985
  H      20.565228     -7.990528     11.715227
  H      19.752189     -6.717268     12.613552
  C      19.312999    -20.521999      7.175001
  C      18.231214    -19.534619      7.526350
  C      16.944020    -19.698957      7.025584
  C      18.470373    -18.452088      8.365670
  C      15.923271    -18.833128      7.364405
  C      17.456701    -17.578367      8.714693
  C      16.165775    -17.766530      8.229140
  O      15.134299    -16.955555      8.555143
  H      19.761228    -20.307815      6.204785
  H      18.903536    -21.530328      7.135025
  H      20.106296    -20.497286      7.919861
  H      16.734217    -20.529319      6.363822
  H      19.463614    -18.291980      8.762095
  H      14.924480    -18.974185      6.979365
  H      17.617764    -16.730247      9.363737
  H      15.367807    -16.317114      9.255921
  C      19.522001    -11.465000      7.842998
  C      19.092838    -10.633552      9.042311
  N      19.254475    -11.375914     10.265676
  C      20.222877    -11.137586     11.175743
  O      21.163550    -10.385001     11.015621
  N      20.087228    -11.923928     12.315140
  H      19.317472    -10.958064      6.899981
  H      19.031266    -12.435957      7.845318
  H      20.595962    -11.640103      7.897452
  H      19.694716     -9.726437      9.124994
  H      18.044897    -10.337131      8.934850
  H      18.631216    -12.157506     10.421358
  H      20.645024    -11.595605     13.089390
  H      19.138724    -12.164381     12.572059
114
Coordinates from ORCA-job 01_xtb_cit_react E -175.319737283030
  C      16.222884    -11.062733     12.467178
  C      14.975668    -11.166056     13.283249
  C      13.863567    -11.675784     12.726409
  C      13.787599    -11.883233     11.295369
  C      14.762594    -11.493392     10.479092
  C      15.989084    -10.779689     10.970755
  C      12.717058    -12.182330     13.542726
  O      12.698524    -11.989876     14.777452
  O      11.868392    -12.870852     12.913201
  O      15.869769     -9.422397     10.631634
  O      16.938843    -12.319195     12.622679
  C      16.256872    -13.473711     12.297112
  C      16.296023    -13.922848     10.855467
  O      17.224855    -13.503426     10.134959
  O      15.394309    -14.704739     10.451627
  C      15.650277    -14.207344     13.225152
  H      16.922079    -10.317148     12.858387
  H      15.039150    -11.007519     14.348721
  H      12.893055    -12.354222     10.916975
  H      14.672692    -11.615855      9.413188
  H      16.875751    -11.186299     10.470500
  H      16.753250     -8.899567     10.895516
  H      15.174980    -15.134925     12.959330
  H      15.624934    -13.902298     14.255353
  O      12.709204    -15.208173     11.388828
  H      13.622456    -15.044965     11.106838
  H      12.438838    -14.434587     11.900570
  C      12.785000    -13.909001      5.224001
  C      13.479669    -12.611505      5.647835
  N      14.858150    -12.759241      6.079855
  C      15.250957    -13.213316      7.294587
  N      14.493815    -14.014337      8.015741
  N      16.477620    -12.929490      7.694682
  H      13.453745    -14.682279      4.845952
  H      12.059554    -13.686830      4.445216
  H      12.237024    -14.350418      6.054993
  H      13.502279    -11.928399      4.797641
  H      12.893103    -12.137944      6.443284
  H      15.491794    -12.083921      5.685741
  H      14.806432    -14.309786      8.966553
  H      13.593246    -14.318510      7.695060
  H      16.807258    -13.221855      8.655546
  H      16.945231    -12.125876      7.305714
  C       8.412999    -16.813004     15.233001
  C       9.882414    -16.934212     15.656969
  N      10.416230    -15.726993     16.251955
  C      10.714201    -14.611536     15.529157
  N      10.533695    -14.573214     14.228285
  N      11.140513    -13.521636     16.145928
  H       7.736528    -17.001581     16.066622
  H       8.192400    -17.548127     14.461231
  H       8.212565    -15.821622     14.833187
  H      10.001782    -17.743499     16.380544
  H      10.499388    -17.182416     14.786761
  H      10.368059    -15.630157     17.252270
  H      11.031789    -13.773340     13.672245
  H      10.334354    -15.413465     13.716594
  H      11.724159    -12.796397     15.565464
  H      11.340904    -13.569973     17.130492
  C      13.998001     -9.220000      7.724999
  O      15.105990    -10.047505      7.944306
  C      14.431758     -7.796245      7.379991
  H      13.329681     -9.174595      8.584877
  H      13.427051     -9.649820      6.889751
  H      15.541564     -9.713986      8.760854
  H      15.017171     -7.391070      8.198352
  H      15.049284     -7.790926      6.483770
  H      13.562693     -7.168813      7.217205
  C      14.518001     -6.670000     12.632999
  S      13.206159     -7.774377     13.254032
  H      14.324364     -6.427596     11.588086
  H      15.471492     -7.174687     12.707137
  H      14.509087     -5.769050     13.238074
  H      13.900017     -8.903190     13.191950
  C      20.972000     -6.019000     10.963999
  C      20.026955     -7.040985     11.609479
  C      18.711270     -7.406202     10.844822
  O      18.001505     -8.255783     11.461451
  O      18.468701     -6.905659      9.750698
  H      20.586780     -5.000259     11.007275
  H      21.117093     -6.276446      9.915982
  H      21.939097     -6.039934     11.468655
  H      20.555496     -7.992080     11.714689
  H      19.736649     -6.711900     12.612230
  C      19.312999    -20.521999      7.175001
  C      18.231559    -19.534063      7.525165
  C      16.946046    -19.693432      7.018896
  C      18.470703    -18.454746      8.368576
  C      15.926554    -18.825298      7.355811
  C      17.458295    -17.578939      8.715400
  C      16.168802    -17.761706      8.224170
  O      15.139300    -16.947503      8.548141
  H      19.761228    -20.307815      6.204785
  H      18.903950    -21.530540      7.135066
  H      20.106205    -20.497245      7.919897
  H      16.736590    -20.521616      6.354539
  H      19.462851    -18.298899      8.769259
  H      14.928943    -18.962321      6.966303
  H      17.619858    -16.733788      9.368003
  H      15.374713    -16.310986      9.250636
  C      19.522001    -11.465000      7.842998
  C      19.104205    -10.628476      9.042549
  N      19.257693    -11.373035     10.264835
  C      20.217544    -11.132021     11.184082
  O      21.159111    -10.378814     11.031426
  N      20.073756    -11.917044     12.322688
  H      19.317472    -10.958064      6.899981
  H      19.025109    -12.432739      7.848392
  H      20.595164    -11.648809      7.891648
  H      19.717616     -9.728764      9.125188
  H      18.061102    -10.316696      8.932258
  H      18.632410    -12.154028     10.417110
  H      20.628497    -11.590206     13.099292
  H      19.124947    -12.160516     12.573686
114
Coordinates from ORCA-job 01_xtb_cit_react E -175.319903485750
  C      16.229365    -11.067394     12.454388
  C      14.977310    -11.176274     13.258172
  C      13.863555    -11.673633     12.710726
  C      13.786224    -11.878789     11.281920
  C      14.764432    -11.493061     10.467854
  C      15.992476    -10.777890     10.959260
  C      12.721363    -12.185398     13.528971
  O      12.707537    -11.998105     14.764131
  O      11.872328    -12.874704     12.900542
  O      15.866823     -9.422553     10.628261
  O      16.943430    -12.321874     12.610732
  C      16.259508    -13.474544     12.281901
  C      16.301708    -13.926681     10.841802
  O      17.230796    -13.506727     10.121924
  O      15.405238    -14.715316     10.438548
  C      15.643688    -14.202872     13.208585
  H      16.929108    -10.321776     12.846292
  H      15.046583    -11.015712     14.328393
  H      12.890614    -12.349374     10.905934
  H      14.673818    -11.617810      9.403426
  H      16.877375    -11.181426     10.453484
  H      16.741050     -8.898651     10.898063
  H      15.167299    -15.129439     12.943494
  H      15.607820    -13.892826     14.240253
  O      12.716956    -15.219673     11.385188
  H      13.626686    -15.054701     11.096772
  H      12.448158    -14.443621     11.893370
  C      12.785000    -13.909001      5.224001
  C      13.477757    -12.608216      5.641437
  N      14.855942    -12.752384      6.075138
  C      15.251317    -13.208427      7.288538
  N      14.492851    -14.005274      8.012267
  N      16.479467    -12.929120      7.685655
  H      13.453745    -14.682279      4.845952
  H      12.056829    -13.691572      4.445956
  H      12.239248    -14.349456      6.057270
  H      13.500481    -11.929856      4.787885
  H      12.889861    -12.130451      6.432976
  H      15.490450    -12.071997      5.681100
  H      14.811163    -14.312051      8.956239
  H      13.594218    -14.309551      7.691730
  H      16.808470    -13.225002      8.645987
  H      16.942478    -12.125844      7.296597
  C       8.412999    -16.813004     15.233001
  C       9.881442    -16.938024     15.653259
  N      10.423655    -15.732649     16.242779
  C      10.722516    -14.618944     15.518085
  N      10.543595    -14.582612     14.216551
  N      11.148465    -13.528972     16.133753
  H       7.736528    -17.001581     16.066622
  H       8.191235    -17.545747     14.460412
  H       8.215081    -15.821733     14.834734
  H      10.000318    -17.744974     16.379599
  H      10.493612    -17.192167     14.782084
  H      10.365746    -15.629917     17.242585
  H      11.039440    -13.780981     13.659555
  H      10.349931    -15.425708     13.706776
  H      11.732716    -12.805276     15.554458
  H      11.344325    -13.575312     17.119481
  C      13.998001     -9.220000      7.724999
  O      15.112774    -10.036524      7.947514
  C      14.423660     -7.796333      7.369264
  H      13.329681     -9.174595      8.584877
  H      13.429344     -9.658096      6.893532
  H      15.548857     -9.693435      8.760570
  H      15.011193     -7.384014      8.184569
  H      15.038670     -7.796558      6.471743
  H      13.551858     -7.169221      7.205275
  C      14.518001     -6.670000     12.632999
  S      13.204892     -7.767559     13.269104
  H      14.324364     -6.427596     11.588086
  H      15.474621     -7.174905     12.707617
  H      14.514553     -5.766502     13.234125
  H      13.879875     -8.906466     13.186113
  C      20.972000     -6.019000     10.963999
  C      20.029474     -7.028070     11.620367
  C      18.710677     -7.389415     10.850858
  O      17.988697     -8.236923     11.459273
  O      18.474414     -6.889485      9.756590
  H      20.586780     -5.000259     11.007275
  H      21.099173     -6.281652      9.921102
  H      21.941061     -6.043492     11.453608
  H      20.559776     -7.983559     11.735267
  H      19.737359     -6.681964     12.620287
  C      19.312999    -20.521999      7.175001
  C      18.230910    -19.533313      7.522812
  C      16.948003    -19.687148      7.009965
  C      18.468839    -18.457050      8.370825
  C      15.929942    -18.815877      7.342939
  C      17.457168    -17.578380      8.713825
  C      16.170431    -17.755089      8.214414
  O      15.142546    -16.937493      8.534980
  H      19.761228    -20.307815      6.204785
  H      18.905826    -21.531071      7.135622
  H      20.105657    -20.496093      7.919918
  H      16.739511    -20.513317      6.343686
  H      19.458634    -18.306392      8.777751
  H      14.934273    -18.949302      6.948598
  H      17.619864    -16.736649      9.371184
  H      15.380263    -16.301808      9.238585
  C      19.522001    -11.465000      7.842998
  C      19.120052    -10.619853      9.043782
  N      19.263235    -11.363644     10.267413
  C      20.213571    -11.119044     11.196699
  O      21.155922    -10.363820     11.053001
  N      20.059174    -11.899431     12.335734
  H      19.317472    -10.958064      6.899981
  H      19.016888    -12.428531      7.853259
  H      20.593502    -11.661885      7.881881
  H      19.749233     -9.730932      9.124943
  H      18.082730    -10.289730      8.930200
  H      18.636720    -12.145304     10.414992
  H      20.606232    -11.568184     13.115616
  H      19.110084    -12.148032     12.577215
114
Coordinates from ORCA-job 01_xtb_cit_react E -175.320236452950
  C      16.218983    -11.063002     12.445808
  C      14.972549    -11.167846     13.268011
  C      13.856915    -11.677085     12.712490
  C      13.784943    -11.886246     11.278214
  C      14.762986    -11.499924     10.461057
  C      15.984602    -10.777044     10.951019
  C      12.717100    -12.195819     13.527761
  O      12.701979    -12.006849     14.762052
  O      11.871839    -12.889433     12.898791
  O      15.856587     -9.421400     10.620350
  O      16.933965    -12.319478     12.605061
  C      16.253137    -13.474318     12.275670
  C      16.301743    -13.929023     10.836343
  O      17.229893    -13.505380     10.118173
  O      15.410994    -14.725118     10.433715
  C      15.632297    -14.200099     13.201786
  H      16.916196    -10.315461     12.840003
  H      15.033545    -11.006049     14.333705
  H      12.890795    -12.362287     10.901361
  H      14.674151    -11.627078      9.394354
  H      16.871836    -11.178377     10.441177
  H      16.724896     -8.899237     10.893122
  H      15.159096    -15.128912     12.938764
  H      15.589226    -13.886782     14.232862
  O      12.725219    -15.238333     11.388082
  H      13.632517    -15.069484     11.095623
  H      12.455143    -14.461690     11.893722
  C      12.785000    -13.909001      5.224001
  C      13.477947    -12.606639      5.636978
  N      14.855291    -12.749073      6.073891
  C      15.249550    -13.207193      7.286944
  N      14.488902    -14.004930      8.011428
  N      16.478169    -12.929610      7.683574
  H      13.453745    -14.682279      4.845952
  H      12.055005    -13.693922      4.446975
  H      12.240898    -14.348089      6.059042
  H      13.502844    -11.932602      4.780585
  H      12.889630    -12.124520      6.425422
  H      15.490230    -12.069711      5.681887
  H      14.810875    -14.317876      8.951634
  H      13.592057    -14.314138      7.688722
  H      16.806141    -13.226444      8.643777
  H      16.939186    -12.124602      7.295229
  C       8.412999    -16.813004     15.233001
  C       9.880280    -16.946324     15.653225
  N      10.425577    -15.743206     16.242918
  C      10.723984    -14.631972     15.516325
  N      10.548916    -14.600633     14.214103
  N      11.145696    -13.539488     16.130508
  H       7.736528    -17.001581     16.066623
  H       8.187291    -17.541479     14.457019
  H       8.219958    -15.818862     14.838921
  H       9.994634    -17.753469     16.379068
  H      10.492795    -17.202523     14.782317
  H      10.357072    -15.634572     17.242475
  H      11.043145    -13.798208     13.656780
  H      10.360267    -15.446897     13.705655
  H      11.728717    -12.815524     15.552051
  H      11.337857    -13.582796     17.116806
  C      13.998001     -9.220000      7.724999
  O      15.118101    -10.030631      7.952047
  C      14.417357     -7.791985      7.364192
  H      13.329681     -9.174595      8.584877
  H      13.432056     -9.665206      6.894193
  H      15.551800     -9.680696      8.763172
  H      15.003565     -7.375213      8.180789
  H      15.034090     -7.791416      6.468958
  H      13.543931     -7.166228      7.194819
  C      14.518001     -6.670000     12.632999
  S      13.217569     -7.767057     13.281698
  H      14.324364     -6.427596     11.588086
  H      15.474843     -7.171185     12.707661
  H      14.515341     -5.765788     13.232312
  H      13.885986     -8.912481     13.170831
  C      20.972000     -6.019000     10.963999
  C      20.023518     -7.031320     11.615121
  C      18.701779     -7.376376     10.844623
  O      17.976773     -8.222636     11.447888
  O      18.466821     -6.872104      9.750596
  H      20.586780     -5.000259     11.007275
  H      21.105051     -6.278865      9.916341
  H      21.942392     -6.042803     11.460541
  H      20.546414     -7.988108     11.716714
  H      19.737116     -6.696866     12.619996
  C      19.313000    -20.521999      7.175000
  C      18.231941    -19.532180      7.523109
  C      16.950941    -19.681567      7.005229
  C      18.469389    -18.458762      8.375581
  C      15.934221    -18.808989      7.336973
  C      17.458438    -17.578178      8.717094
  C      16.173917    -17.751363      8.212233
  O      15.146942    -16.933212      8.532155
  H      19.761228    -20.307815      6.204785
  H      18.905454    -21.530834      7.135765
  H      20.105733    -20.496460      7.919668
  H      16.743242    -20.504837      6.335072
  H      19.457894    -18.311967      8.786671
  H      14.939674    -18.939271      6.939291
  H      17.621081    -16.739114      9.378639
  H      15.386355    -16.298500      9.236903
  C      19.522001    -11.465000      7.842998
  C      19.128549    -10.612437      9.044235
  N      19.261178    -11.356104     10.268331
  C      20.204266    -11.109269     11.203746
  O      21.148251    -10.355163     11.064489
  N      20.041563    -11.886186     12.343418
  H      19.317472    -10.958064      6.899981
  H      19.009187    -12.424460      7.859219
  H      20.591791    -11.670665      7.877787
  H      19.769309     -9.731776      9.125228
  H      18.094133    -10.268211      8.930227
  H      18.633487    -12.137198     10.413757
  H      20.581263    -11.551191     13.126637
  H      19.091621    -12.136296     12.579434
114
Coordinates from ORCA-job 01_xtb_cit_react E -175.320290941980
  C      16.236679    -11.065544     12.445868
  C      14.991663    -11.167763     13.264570
  C      13.874077    -11.674977     12.707240
  C      13.793776    -11.882234     11.277144
  C      14.770168    -11.496894     10.462638
  C      15.996644    -10.777480     10.950373
  C      12.734511    -12.193042     13.528307
  O      12.719794    -12.007426     14.763429
  O      11.888410    -12.886451     12.898472
  O      15.868489     -9.419395     10.622814
  O      16.949798    -12.322853     12.600764
  C      16.266120    -13.476750     12.272850
  C      16.315059    -13.932625     10.833476
  O      17.243572    -13.511554     10.114081
  O      15.423147    -14.727315     10.432383
  C      15.646414    -14.201877     13.199159
  H      16.934960    -10.318289     12.838521
  H      15.059452    -11.012073     14.328882
  H      12.898643    -12.355535     10.903003
  H      14.677149    -11.623460      9.397791
  H      16.878151    -11.181397     10.435629
  H      16.744796     -8.895166     10.893193
  H      15.171382    -15.131145     12.938367
  H      15.610997    -13.891871     14.227733
  O      12.740858    -15.238169     11.398304
  H      13.645841    -15.069267     11.099215
  H      12.470594    -14.459404     11.900913
  C      12.785000    -13.909001      5.224001
  C      13.478466    -12.606903      5.636979
  N      14.856281    -12.749116      6.072709
  C      15.252186    -13.205064      7.286032
  N      14.494300    -14.000318      8.011407
  N      16.479748    -12.921927      7.683880
  H      13.453745    -14.682279      4.845952
  H      12.054870    -13.693444      4.447336
  H      12.241136    -14.347453      6.059410
  H      13.502725    -11.932665      4.780162
  H      12.890692    -12.124642      6.426009
  H      15.487242    -12.066275      5.684864
  H      14.818429    -14.315514      8.950880
  H      13.599649    -14.314374      7.686794
  H      16.810993    -13.226165      8.641482
  H      16.938206    -12.116779      7.296727
  C       8.412999    -16.813004     15.233001
  C       9.879482    -16.947379     15.647272
  N      10.433162    -15.748818     16.230841
  C      10.734105    -14.634617     15.506061
  N      10.560723    -14.598685     14.205442
  N      11.158414    -13.543489     16.123066
  H       7.736528    -17.001581     16.066622
  H       8.185415    -17.537446     14.458471
  H       8.220855    -15.820169     14.840299
  H       9.994646    -17.752514     16.374964
  H      10.485992    -17.205721     14.774940
  H      10.367516    -15.644137     17.229234
  H      11.056516    -13.796091     13.651707
  H      10.370285    -15.441523     13.696271
  H      11.743511    -12.818321     15.548384
  H      11.344914    -13.587939     17.110179
  C      13.998001     -9.220000      7.724999
  O      15.118378    -10.027394      7.951219
  C      14.411536     -7.795786      7.359855
  H      13.329681     -9.174595      8.584877
  H      13.433091     -9.667162      6.896308
  H      15.552930     -9.682967      8.764523
  H      14.995781     -7.375913      8.171822
  H      15.026702     -7.798303      6.462737
  H      13.538364     -7.175195      7.191849
  C      14.518001     -6.670000     12.632999
  S      13.209223     -7.758741     13.290182
  H      14.324364     -6.427596     11.588086
  H      15.474279     -7.175742     12.707772
  H      14.521508     -5.761717     13.229159
  H      13.874762     -8.901490     13.156894
  C      20.972000     -6.019000     10.963999
  C      20.020199     -7.046951     11.599675
  C      18.701331     -7.380797     10.842532
  O      17.986900     -8.232093     11.450801
  O      18.459975     -6.864324      9.750642
  H      20.586780     -5.000259     11.007275
  H      21.124271     -6.271747      9.907895
  H      21.940782     -6.039384     11.477184
  H      20.530839     -8.002224     11.674320
  H      19.748091     -6.741668     12.609345
  C      19.312999    -20.521999      7.175001
  C      18.235313    -19.527324      7.524183
  C      16.954643    -19.667214      6.999701
  C      18.474559    -18.458985      8.383351
  C      15.940648    -18.790506      7.332169
  C      17.466995    -17.573356      8.724227
  C      16.182365    -17.737447      8.213981
  O      15.157486    -16.915417      8.532050
  H      19.761228    -20.307815      6.204785
  H      18.900748    -21.529372      7.134242
  H      20.106356    -20.500604      7.919906
  H      16.744865    -20.486497      6.324270
  H      19.462692    -18.319362      8.799794
  H      14.946496    -18.913581      6.929271
  H      17.633272    -16.738472      9.390390
  H      15.396595    -16.280622      9.236802
  C      19.522001    -11.465000      7.842998
  C      19.140210    -10.608584      9.043445
  N      19.270506    -11.352921     10.267978
  C      20.207857    -11.100125     11.208133
  O      21.151136    -10.345095     11.069702
  N      20.042897    -11.873456     12.348919
  H      19.317472    -10.958064      6.899981
  H      19.002548    -12.420626      7.864486
  H      20.590338    -11.677292      7.875220
  H      19.788824     -9.734052      9.123278
  H      18.107715    -10.256853      8.931653
  H      18.644833    -12.134975     10.413335
  H      20.577477    -11.534485     13.134366
  H      19.092680    -12.129257     12.578817
114
Coordinates from ORCA-job 01_xtb_cit_react E -175.320713350980
  C      16.238226    -11.065220     12.439547
  C      14.991075    -11.175377     13.258541
  C      13.874734    -11.679346     12.706708
  C      13.795062    -11.880596     11.275310
  C      14.771301    -11.494468     10.458921
  C      15.997593    -10.775841     10.945605
  C      12.736157    -12.200642     13.526120
  O      12.722069    -12.015875     14.761992
  O      11.892113    -12.894461     12.896411
  O      15.869354     -9.417537     10.621991
  O      16.952463    -12.322281     12.592184
  C      16.269418    -13.476782     12.264511
  C      16.320193    -13.934273     10.826390
  O      17.247541    -13.511219     10.106887
  O      15.430490    -14.731787     10.425523
  C      15.649087    -14.200802     13.191164
  H      16.935307    -10.317918     12.832749
  H      15.059818    -11.022320     14.325390
  H      12.899146    -12.353214     10.901511
  H      14.677511    -11.619970      9.393862
  H      16.877944    -11.179172     10.427568
  H      16.746674     -8.892263     10.894411
  H      15.174352    -15.130395     12.930826
  H      15.609530    -13.886507     14.219358
  O      12.749166    -15.246164     11.398400
  H      13.652684    -15.075609     11.095428
  H      12.477808    -14.466925     11.899535
  C      12.785000    -13.909001      5.224001
  C      13.476710    -12.605414      5.633535
  N      14.854556    -12.744610      6.069741
  C      15.251526    -13.202409      7.281930
  N      14.493077    -13.995712      8.008626
  N      16.479820    -12.919184      7.679017
  H      13.453745    -14.682279      4.845952
  H      12.053313    -13.695377      4.448424
  H      12.243169    -14.346480      6.061049
  H      13.500113    -11.933250      4.774790
  H      12.887439    -12.122254      6.421330
  H      15.484922    -12.060591      5.681095
  H      14.820770    -14.315538      8.945104
  H      13.600270    -14.313054      7.682772
  H      16.812379    -13.224927      8.635605
  H      16.938781    -12.110057      7.293155
  C       8.412999    -16.813004     15.233001
  C       9.880834    -16.954188     15.648347
  N      10.435066    -15.754122     16.235124
  C      10.736849    -14.641081     15.508645
  N      10.567247    -14.608944     14.206537
  N      11.161727    -13.550181     16.125427
  H       7.736528    -17.001581     16.066623
  H       8.181832    -17.536515     14.456219
  H       8.223587    -15.817440     14.842566
  H       9.994241    -17.761485     16.374488
  H      10.488977    -17.213250     14.775772
  H      10.362059    -15.645510     17.232972
  H      11.063061    -13.805934     13.651239
  H      10.377877    -15.452672     13.697556
  H      11.748054    -12.826267     15.549560
  H      11.346907    -13.593702     17.113212
  C      13.998001     -9.220000      7.724999
  O      15.120603    -10.022987      7.951673
  C      14.406012     -7.795324      7.357509
  H      13.329681     -9.174595      8.584877
  H      13.434014     -9.670538      6.897318
  H      15.554966     -9.674352      8.763373
  H      14.997697     -7.372741      8.166699
  H      15.014398     -7.801729      6.454933
  H      13.528062     -7.172633      7.196714
  C      14.518001     -6.670000     12.632999
  S      13.213829     -7.756081     13.295041
  H      14.324364     -6.427596     11.588086
  H      15.474864     -7.174859     12.706640
  H      14.521681     -5.760826     13.228299
  H      13.858295     -8.909330     13.152449
  C      20.972000     -6.019000     10.963999
  C      20.027521     -7.039475     11.611170
  C      18.703586     -7.379933     10.854861
  O      17.986621     -8.232095     11.462010
  O      18.460837     -6.865682      9.765630
  H      20.586780     -5.000259     11.007275
  H      21.109570     -6.276713      9.914178
  H      21.942065     -6.041165     11.462103
  H      20.546275     -7.996817     11.696688
  H      19.753808     -6.719317     12.619797
  C      19.313000    -20.521999      7.175000
  C      18.237371    -19.526718      7.524321
  C      16.957560    -19.663270      6.997675
  C      18.477642    -18.461047      8.385183
  C      15.945063    -18.785143      7.329753
  C      17.472018    -17.574039      8.725785
  C      16.187966    -17.734076      8.213092
  O      15.164934    -16.910056      8.529808
  H      19.761228    -20.307815      6.204785
  H      18.899348    -21.528619      7.134162
  H      20.106189    -20.501584      7.919873
  H      16.747238    -20.481333      6.321622
  H      19.465459    -18.324348      8.802979
  H      14.951302    -18.905033      6.925015
  H      17.639374    -16.741358      9.393670
  H      15.404322    -16.275006      9.234353
  C      19.522001    -11.465000      7.842998
  C      19.146841    -10.603986      9.042188
  N      19.273047    -11.346961     10.267756
  C      20.205043    -11.090086     11.213229
  O      21.147025    -10.332531     11.078816
  N      20.034748    -11.861199     12.354725
  H      19.317472    -10.958064      6.899981
  H      18.997357    -12.416796      7.867710
  H      20.589133    -11.682364      7.873946
  H      19.801598     -9.734188      9.120603
  H      18.117508    -10.244838      8.930868
  H      18.647353    -12.129311     10.411707
  H      20.562985    -11.520973     13.143576
  H      19.083067    -12.120317     12.577151
114
Coordinates from ORCA-job 01_xtb_cit_react E -175.320950033590
  C      16.242749    -11.065291     12.432281
  C      14.998236    -11.173969     13.253957
  C      13.880894    -11.682121     12.700316
  C      13.796027    -11.884504     11.268658
  C      14.770165    -11.497417     10.451718
  C      15.996199    -10.776895     10.937877
  C      12.747139    -12.207808     13.523643
  O      12.736893    -12.026785     14.759997
  O      11.902807    -12.903235     12.895360
  O      15.865565     -9.416563     10.617895
  O      16.957431    -12.322771     12.583016
  C      16.273688    -13.477262     12.256205
  C      16.327006    -13.935426     10.817999
  O      17.252340    -13.507694     10.098325
  O      15.440595    -14.737952     10.416503
  C      15.649791    -14.198516     13.183177
  H      16.940166    -10.316971     12.822652
  H      15.069497    -11.022118     14.320904
  H      12.899645    -12.358554     10.896726
  H      14.675019    -11.622426      9.386137
  H      16.875674    -11.177531     10.415312
  H      16.739850     -8.892139     10.894023
  H      15.175871    -15.127825     12.923001
  H      15.605355    -13.880001     14.211118
  O      12.761263    -15.258510     11.400934
  H      13.663072    -15.085172     11.091502
  H      12.490045    -14.477640     11.899972
  C      12.785000    -13.909001      5.224001
  C      13.474259    -12.602278      5.627552
  N      14.851520    -12.736720      6.066769
  C      15.248886    -13.194135      7.278835
  N      14.488189    -13.988376      8.007197
  N      16.477419    -12.913201      7.674024
  H      13.453745    -14.682279      4.845952
  H      12.050756    -13.699006      4.449996
  H      12.246146    -14.344837      6.063793
  H      13.498369    -11.935356      4.765021
  H      12.882422    -12.115130      6.411106
  H      15.481984    -12.051827      5.677632
  H      14.821424    -14.314987      8.938544
  H      13.597324    -14.313647      7.678726
  H      16.811210    -13.221375      8.629222
  H      16.936424    -12.103544      7.289606
  C       8.412999    -16.813004     15.233001
  C       9.881523    -16.961918     15.648300
  N      10.443085    -15.764095     16.235638
  C      10.749357    -14.653043     15.508007
  N      10.583179    -14.622088     14.205730
  N      11.175177    -13.561830     16.124465
  H       7.736528    -17.001581     16.066622
  H       8.177428    -17.534435     14.453350
  H       8.227254    -15.814705     14.845615
  H       9.991161    -17.769422     16.374563
  H      10.487953    -17.224785     14.775582
  H      10.361006    -15.650536     17.233381
  H      11.078350    -13.818536     13.650246
  H      10.392716    -15.465763     13.696781
  H      11.763840    -12.838880     15.548251
  H      11.357994    -13.604458     17.112728
  C      13.998001     -9.220000      7.724999
  O      15.124806    -10.019637      7.954277
  C      14.402670     -7.789359      7.355325
  H      13.329681     -9.174595      8.584877
  H      13.436416     -9.676149      6.896139
  H      15.557611     -9.665435      8.763999
  H      14.987435     -7.362400      8.168338
  H      15.017341     -7.790661      6.458063
  H      13.524258     -7.171334      7.183949
  C      14.518001     -6.670000     12.632999
  S      13.207826     -7.744649     13.300295
  H      14.324364     -6.427596     11.588086
  H      15.473828     -7.176936     12.706579
  H      14.526728     -5.759986     13.226169
  H      13.832642     -8.904508     13.135590
  C      20.972000     -6.019000     10.963999
  C      20.029486     -7.036424     11.616177
  C      18.700830     -7.374863     10.860249
  O      17.983290     -8.225755     11.466808
  O      18.451901     -6.860170      9.773749
  H      20.586780     -5.000259     11.007275
  H      21.103902     -6.278496      9.915901
  H      21.943795     -6.041624     11.456935
  H      20.552088     -7.994976     11.702800
  H      19.756521     -6.712972     12.627753
  C      19.312999    -20.521999      7.175001
  C      18.239812    -19.524825      7.524410
  C      16.961825    -19.656116      6.993285
  C      18.480494    -18.461975      8.387696
  C      15.951509    -18.775499      7.323159
  C      17.476780    -17.572858      8.727378
  C      16.194686    -17.727226      8.209195
  O      15.173027    -16.901722      8.525523
  H      19.761228    -20.307815      6.204785
  H      18.897281    -21.527493      7.133956
  H      20.106000    -20.503185      7.919789
  H      16.751700    -20.471306      6.314041
  H      19.467022    -18.329365      8.808818
  H      14.959158    -18.891085      6.914787
  H      17.644825    -16.743130      9.398871
  H      15.413308    -16.266689      9.230879
  C      19.522001    -11.465000      7.842998
  C      19.158129    -10.597015      9.041163
  N      19.276977    -11.338071     10.268932
  C      20.201631    -11.077533     11.219700
  O      21.142505    -10.317873     11.088582
  N      20.025796    -11.845889     12.361417
  H      19.317472    -10.958064      6.899981
  H      18.987210    -12.411340      7.873751
  H      20.587325    -11.692433      7.870938
  H      19.823710     -9.735846      9.116753
  H      18.133108    -10.225367      8.932071
  H      18.650168    -12.120202     10.410430
  H      20.544895    -11.500871     13.154094
  H      19.073860    -12.108348     12.575322
114
Coordinates from ORCA-job 01_xtb_cit_react E -175.321187695380
  C      16.246030    -11.064458     12.427233
  C      14.998978    -11.173161     13.246974
  C      13.880301    -11.673548     12.696079
  C      13.797685    -11.877366     11.264509
  C      14.774217    -11.491817     10.447825
  C      16.000680    -10.774956     10.933792
  C      12.747646    -12.204401     13.517113
  O      12.735792    -12.024637     14.752857
  O      11.905811    -12.901906     12.887783
  O      15.871638     -9.413792     10.618577
  O      16.962168    -12.321011     12.580069
  C      16.279874    -13.477463     12.254133
  C      16.333642    -13.935415     10.816238
  O      17.256741    -13.505664     10.096042
  O      15.448496    -14.738009     10.414951
  C      15.658348    -14.200146     13.180891
  H      16.943798    -10.316563     12.816684
  H      15.068156    -11.023497     14.313447
  H      12.901995    -12.350962     10.890201
  H      14.679424    -11.617148      9.382022
  H      16.878168    -11.176433     10.409145
  H      16.752475     -8.893817     10.888062
  H      15.184790    -15.130629     12.921348
  H      15.616936    -13.883292     14.207553
  O      12.773789    -15.256655     11.405579
  H      13.672858    -15.082189     11.091385
  H      12.498522    -14.473752     11.898807
  C      12.785000    -13.909001      5.224001
  C      13.474849    -12.601369      5.624830
  N      14.852139    -12.734447      6.064854
  C      15.249336    -13.189794      7.277509
  N      14.490593    -13.979479      8.008083
  N      16.477384    -12.906082      7.673216
  H      13.453745    -14.682279      4.845952
  H      12.049719    -13.700137      4.450337
  H      12.246867    -14.343979      6.064983
  H      13.499144    -11.936342      4.760425
  H      12.883526    -12.112529      6.407714
  H      15.480714    -12.049114      5.677044
  H      14.825937    -14.307403      8.937659
  H      13.605577    -14.313416      7.677102
  H      16.814360    -13.216327      8.626758
  H      16.933355    -12.095598      7.292678
  C       8.412999    -16.813004     15.233001
  C       9.882469    -16.963466     15.645946
  N      10.448328    -15.765549     16.230594
  C      10.755526    -14.655746     15.501551
  N      10.592021    -14.626385     14.198618
  N      11.181929    -13.565209     16.116403
  H       7.736528    -17.001581     16.066623
  H       8.175614    -17.531901     14.452532
  H       8.228559    -15.814152     14.847478
  H       9.990566    -17.769887     16.373208
  H      10.488580    -17.229287     14.772859
  H      10.365977    -15.650184     17.227348
  H      11.084794    -13.821507     13.644243
  H      10.404004    -15.471060     13.689808
  H      11.767769    -12.840520     15.540523
  H      11.362067    -13.606081     17.104723
  C      13.998001     -9.220000      7.724999
  O      15.130140    -10.010201      7.951581
  C      14.390239     -7.791803      7.345875
  H      13.329681     -9.174595      8.584877
  H      13.436460     -9.682393      6.900992
  H      15.562723     -9.654771      8.762432
  H      14.979365     -7.355909      8.151319
  H      14.997531     -7.796766      6.442873
  H      13.504294     -7.180033      7.180875
  C      14.518001     -6.670000     12.632999
  S      13.215980     -7.747648     13.305661
  H      14.324364     -6.427596     11.588086
  H      15.472799     -7.177131     12.712753
  H      14.524359     -5.760484     13.226527
  H      13.824368     -8.920733     13.070676
  C      20.972000     -6.019000     10.963999
  C      20.029462     -7.041326     11.609780
  C      18.701743     -7.381040     10.857102
  O      17.989904     -8.246653     11.454325
  O      18.445955     -6.850772      9.778161
  H      20.586780     -5.000259     11.007275
  H      21.107803     -6.275595      9.916098
  H      21.941998     -6.041623     11.459172
  H      20.550721     -7.998307     11.690677
  H      19.759035     -6.725089     12.620627
  C      19.312999    -20.521999      7.175001
  C      18.244667    -19.518448      7.528379
  C      16.966564    -19.638168      6.991545
  C      18.488371    -18.461934      8.400866
  C      15.960031    -18.753140      7.323714
  C      17.488349    -17.567237      8.741470
  C      16.206282    -17.710950      8.217518
  O      15.188309    -16.879980      8.531943
  H      19.761228    -20.307815      6.204785
  H      18.891100    -21.525109      7.131679
  H      20.107238    -20.509975      7.919072
  H      16.753138    -20.448148      6.306124
  H      19.474848    -18.337722      8.827332
  H      14.967384    -18.861061      6.911942
  H      17.658471    -16.741140      9.417762
  H      15.429126    -16.246049      9.238935
  C      19.522001    -11.465000      7.842998
  C      19.174910    -10.589406      9.044322
  N      19.290572    -11.334739     10.270597
  C      20.207153    -11.069009     11.230285
  O      21.148093    -10.306758     11.105422
  N      20.023856    -11.835861     12.372340
  H      19.317472    -10.958064      6.899981
  H      18.977509    -12.405823      7.879029
  H      20.585926    -11.703472      7.864734
  H      19.855305     -9.736784      9.119907
  H      18.153646    -10.201377      8.939575
  H      18.661094    -12.115079     10.410987
  H      20.536761    -11.489530     13.168612
  H      19.070035    -12.102240     12.579089
114
Coordinates from ORCA-job 01_xtb_cit_react E -175.321375786480
  C      16.261308    -11.066784     12.427243
  C      15.017802    -11.182035     13.255808
  C      13.894861    -11.671465     12.713448
  C      13.804739    -11.868601     11.279335
  C      14.778493    -11.481841     10.457126
  C      16.007849    -10.770908     10.937538
  C      12.768807    -12.215129     13.535271
  O      12.761492    -12.048353     14.772628
  O      11.928656    -12.912279     12.903359
  O      15.878965     -9.408202     10.628882
  O      16.981491    -12.322964     12.567493
  C      16.299068    -13.479638     12.244397
  C      16.350550    -13.937438     10.807119
  O      17.270053    -13.508351     10.083100
  O      15.463054    -14.739243     10.410270
  C      15.677463    -14.200907     13.172749
  H      16.959689    -10.319053     12.814741
  H      15.093766    -11.038069     14.324304
  H      12.908225    -12.340683     10.905723
  H      14.677451    -11.602953      9.390769
  H      16.880715    -11.172641     10.403330
  H      16.759771     -8.889063     10.903045
  H      15.202388    -15.131188     12.914846
  H      15.630359    -13.879722     14.199771
  O      12.792813    -15.260005     11.413376
  H      13.689187    -15.084928     11.092994
  H      12.516935    -14.477700     11.906802
  C      12.785000    -13.909001      5.224001
  C      13.472312    -12.598887      5.620074
  N      14.849022    -12.728130      6.061559
  C      15.247028    -13.181603      7.274703
  N      14.487819    -13.963757      8.011033
  N      16.474743    -12.895716      7.668587
  H      13.453745    -14.682279      4.845952
  H      12.047034    -13.702552      4.452347
  H      12.250504    -14.342463      6.068102
  H      13.496200    -11.937399      4.752751
  H      12.879292    -12.108072      6.400692
  H      15.475999    -12.038571      5.673233
  H      14.829730    -14.298774      8.935488
  H      13.606682    -14.300809      7.681863
  H      16.816462    -13.212031      8.617776
  H      16.933856    -12.085515      7.284875
  C       8.412999    -16.813004     15.233001
  C       9.879050    -16.985475     15.636316
  N      10.462174    -15.800878     16.223752
  C      10.779753    -14.689293     15.500227
  N      10.622496    -14.652559     14.197910
  N      11.212751    -13.604394     16.121813
  H       7.736528    -17.001581     16.066622
  H       8.163570    -17.518554     14.447477
  H       8.240837    -15.809630     14.858194
  H       9.979744    -17.796717     16.358553
  H      10.477311    -17.251514     14.759180
  H      10.371951    -15.686768     17.219646
  H      11.113313    -13.842715     13.650203
  H      10.428965    -15.493135     13.683050
  H      11.798230    -12.874781     15.552499
  H      11.386011    -13.649982     17.110856
  C      13.998001     -9.220000      7.724999
  O      15.133809    -10.002346      7.955894
  C      14.375559     -7.795219      7.337954
  H      13.329681     -9.174595      8.584877
  H      13.443217     -9.690516      6.903695
  H      15.562520     -9.646511      8.769277
  H      14.957998     -7.350296      8.136981
  H      14.981750     -7.800100      6.433332
  H      13.485608     -7.196635      7.172429
  C      14.518001     -6.670000     12.632999
  S      13.215362     -7.742484     13.307059
  H      14.324364     -6.427596     11.588086
  H      15.472292     -7.182143     12.709368
  H      14.526132     -5.759172     13.225478
  H      13.815777     -8.900369     13.063310
  C      20.972000     -6.019000     10.963999
  C      20.039474     -7.045175     11.613894
  C      18.706516     -7.383026     10.875858
  O      17.997373     -8.250261     11.483575
  O      18.440696     -6.856241      9.799552
  H      20.586780     -5.000259     11.007275
  H      21.107614     -6.276414      9.914994
  H      21.944349     -6.038850     11.456681
  H      20.562710     -8.001379     11.679701
  H      19.783541     -6.739290     12.629668
  C      19.312999    -20.521999      7.175001
  C      18.247994    -19.516032      7.528891
  C      16.971426    -19.630342      6.989543
  C      18.491652    -18.463660      8.404473
  C      15.967430    -18.742694      7.320609
  C      17.494566    -17.566008      8.744429
  C      16.214356    -17.702821      8.215897
  O      15.198050    -16.869875      8.527557
  H      19.761228    -20.307815      6.204785
  H      18.887797    -21.523134      7.131434
  H      20.106742    -20.512350      7.918847
  H      16.756879    -20.438767      6.304430
  H      19.476498    -18.344306      8.834520
  H      14.975982    -18.846410      6.906830
  H      17.667717    -16.745006      9.425505
  H      15.437714    -16.232939      9.233288
  C      19.522001    -11.465000      7.842998
  C      19.189845    -10.581464      9.041288
  N      19.299675    -11.322210     10.269760
  C      20.210315    -11.049141     11.232389
  O      21.149215    -10.285021     11.106946
  N      20.023630    -11.807852     12.377314
  H      19.317472    -10.958064      6.899981
  H      18.966720    -12.397784      7.888736
  H      20.582543    -11.713170      7.862581
  H      19.880303     -9.738720      9.111310
  H      18.173588    -10.180990      8.941883
  H      18.671625    -12.104054     10.409542
  H      20.525279    -11.454729     13.177729
  H      19.070386    -12.085486     12.572941
114
Coordinates from ORCA-job 01_xtb_cit_react E -175.321661173890
  C      16.271773    -11.064638     12.420547
  C      15.034284    -11.184952     13.239029
  C      13.909038    -11.678967     12.694936
  C      13.806229    -11.872909     11.268334
  C      14.775300    -11.483304     10.448313
  C      16.006910    -10.770939     10.928321
  C      12.785203    -12.220986     13.526201
  O      12.780889    -12.055389     14.765203
  O      11.943056    -12.919168     12.897967
  O      15.873609     -9.404022     10.623943
  O      16.995714    -12.317767     12.558464
  C      16.309555    -13.475082     12.239153
  C      16.360821    -13.935124     10.800697
  O      17.276433    -13.500768     10.074275
  O      15.475543    -14.742790     10.403047
  C      15.685298    -14.193566     13.168192
  H      16.969837    -10.313944     12.802479
  H      15.114609    -11.038215     14.311775
  H      12.908126    -12.343901     10.900230
  H      14.673696    -11.605339      9.382954
  H      16.877689    -11.171135     10.388483
  H      16.750349     -8.883533     10.906145
  H      15.208062    -15.122550     12.908796
  H      15.638616    -13.869906     14.193102
  O      12.809675    -15.272731     11.418167
  H      13.704053    -15.092919     11.090282
  H      12.532770    -14.487228     11.906834
  C      12.785000    -13.909001      5.224001
  C      13.469796    -12.595548      5.611272
  N      14.845556    -12.720151      6.057455
  C      15.243030    -13.172830      7.271099
  N      14.480978    -13.957277      8.009376
  N      16.471787    -12.885965      7.663661
  H      13.453745    -14.682279      4.845952
  H      12.043313    -13.707576      4.454761
  H      12.255107    -14.339929      6.071967
  H      13.495227    -11.941497      4.738378
  H      12.872819    -12.098485      6.385375
  H      15.471162    -12.030630      5.669454
  H      14.830411    -14.296754      8.929594
  H      13.602463    -14.309146      7.675927
  H      16.815902    -13.204102      8.611451
  H      16.934380    -12.071856      7.282631
  C       8.412999    -16.813004     15.233001
  C       9.879782    -16.991916     15.638811
  N      10.471635    -15.807734     16.224482
  C      10.792045    -14.696771     15.499407
  N      10.640127    -14.663202     14.196511
  N      11.224156    -13.609894     16.119996
  H       7.736528    -17.001581     16.066623
  H       8.160279    -17.519193     14.445233
  H       8.242605    -15.807157     14.858788
  H       9.977370    -17.801190     16.365145
  H      10.475375    -17.265879     14.763198
  H      10.372522    -15.688955     17.219937
  H      11.130376    -13.854122     13.647326
  H      10.443971    -15.502328     13.683398
  H      11.814325    -12.882923     15.547958
  H      11.395316    -13.653355     17.109884
  C      13.998001     -9.220000      7.724999
  O      15.137536     -9.995819      7.959163
  C      14.368919     -7.788298      7.335271
  H      13.329681     -9.174595      8.584877
  H      13.446859     -9.697680      6.902100
  H      15.563516     -9.637034      8.770865
  H      14.956149     -7.338145      8.134974
  H      14.971875     -7.791110      6.429211
  H      13.472755     -7.190060      7.169856
  C      14.518001     -6.670000     12.632999
  S      13.213337     -7.745501     13.293936
  H      14.324364     -6.427596     11.588086
  H      15.474069     -7.178559     12.714344
  H      14.522226     -5.760261     13.226951
  H      13.783910     -8.905196     13.011250
  C      20.972000     -6.019000     10.963999
  C      20.033749     -7.046836     11.610390
  C      18.696792     -7.377802     10.873520
  O      17.993031     -8.234298     11.485982
  O      18.418530     -6.848048      9.799670
  H      20.586780     -5.000259     11.007275
  H      21.115100     -6.274823      9.912260
  H      21.943966     -6.038164     11.464962
  H      20.557725     -8.003916     11.673518
  H      19.777175     -6.745998     12.632881
  C      19.312999    -20.521999      7.175001
  C      18.252688    -19.513723      7.530635
  C      16.978162    -19.621328      6.987724
  C      18.497832    -18.465746      8.409032
  C      15.977292    -18.730980      7.318221
  C      17.504014    -17.566090      8.750392
  C      16.225719    -17.695059      8.216924
  O      15.212145    -16.860138      8.529020
  H      19.761228    -20.307815      6.204785
  H      18.883779    -21.520962      7.130455
  H      20.106690    -20.516193      7.918457
  H      16.763020    -20.425914      6.298809
  H      19.481448    -18.351252      8.841107
  H      14.987449    -18.828674      6.900348
  H      17.677984    -16.749718      9.436678
  H      15.452224    -16.223153      9.236058
  C      19.522001    -11.465000      7.842998
  C      19.206736    -10.571959      9.037963
  N      19.310257    -11.309035     10.270242
  C      20.214941    -11.033380     11.235308
  O      21.152702    -10.268616     11.109723
  N      20.026138    -11.788632     12.379619
  H      19.317472    -10.958064      6.899981
  H      18.953404    -12.388267      7.898196
  H      20.578826    -11.725931      7.859210
  H      19.909044     -9.740952      9.102843
  H      18.198033    -10.157191      8.942755
  H      18.679870    -12.089312     10.407813
  H      20.519781    -11.430042     13.181487
  H      19.074446    -12.069717     12.567199
114
Coordinates from ORCA-job 01_xtb_cit_react E -175.321928034480
  C      16.272308    -11.059943     12.420015
  C      15.032177    -11.180550     13.253305
  C      13.912944    -11.681200     12.710404
  C      13.812713    -11.876238     11.278800
  C      14.778248    -11.483426     10.453855
  C      16.008655    -10.767522     10.930378
  C      12.787457    -12.221856     13.537957
  O      12.780854    -12.055394     14.776538
  O      11.945525    -12.919225     12.907224
  O      15.874623     -9.400640     10.624115
  O      16.997512    -12.314324     12.555438
  C      16.313566    -13.471311     12.237957
  C      16.362256    -13.927166     10.800118
  O      17.275924    -13.489370     10.072546
  O      15.476163    -14.734162     10.404024
  C      15.693839    -14.191153     13.167994
  H      16.970524    -10.308963     12.802996
  H      15.113979    -11.039021     14.321515
  H      12.915219    -12.349122     10.910303
  H      14.675814    -11.604600      9.388723
  H      16.877135    -11.168310     10.389907
  H      16.755667     -8.884194     10.903625
  H      15.218807    -15.120674     12.910529
  H      15.654506    -13.869279     14.192095
  O      12.814208    -15.269810     11.422451
  H      13.708364    -15.089529     11.094243
  H      12.535452    -14.484132     11.910111
  C      12.785000    -13.909001      5.224001
  C      13.469586    -12.594461      5.607352
  N      14.845666    -12.718338      6.054125
  C      15.241894    -13.162136      7.271046
  N      14.479729    -13.947899      8.010360
  N      16.468895    -12.873791      7.663888
  H      13.453745    -14.682279      4.845952
  H      12.041635    -13.709493      4.456034
  H      12.257211    -14.338931      6.073706
  H      13.495278    -11.943337      4.732626
  H      12.872786    -12.095528      6.380239
  H      15.470185    -12.031752      5.666016
  H      14.829066    -14.285704      8.930712
  H      13.602195    -14.307378      7.674735
  H      16.814197    -13.193125      8.610649
  H      16.928566    -12.068258      7.282030
  C       8.412999    -16.813004     15.233001
  C       9.879968    -16.991452     15.643556
  N      10.468159    -15.805048     16.230157
  C      10.790672    -14.696491     15.503638
  N      10.641300    -14.664200     14.200094
  N      11.221264    -13.610530     16.124200
  H       7.736528    -17.001581     16.066622
  H       8.161006    -17.519044     14.443682
  H       8.242910    -15.806420     14.859702
  H       9.976290    -17.799923     16.371255
  H      10.478717    -17.266752     14.770126
  H      10.367883    -15.684845     17.224782
  H      11.132963    -13.855096     13.650273
  H      10.438685    -15.499841     13.688410
  H      11.812078    -12.883363     15.553084
  H      11.391845    -13.653610     17.114379
  C      13.998001     -9.220000      7.724999
  O      15.140758     -9.995273      7.960107
  C      14.368553     -7.784412      7.335578
  H      13.329681     -9.174595      8.584877
  H      13.448575     -9.700172      6.901127
  H      15.562911     -9.637490      8.773713
  H      14.950774     -7.334595      8.138382
  H      14.975516     -7.779238      6.433216
  H      13.473102     -7.190609      7.164852
  C      14.518001     -6.670000     12.632999
  S      13.212709     -7.745477     13.306439
  H      14.324364     -6.427596     11.588086
  H      15.475701     -7.176120     12.714184
  H      14.522716     -5.757077     13.224439
  H      13.801135     -8.888679     13.002208
  C      20.972000     -6.019000     10.963999
  C      20.040243     -7.044051     11.615594
  C      18.706630     -7.378361     10.871167
  O      17.999639     -8.238902     11.474810
  O      18.435759     -6.839253      9.800236
  H      20.586780     -5.000259     11.007275
  H      21.104096     -6.276542      9.916525
  H      21.945265     -6.038120     11.452821
  H      20.570947     -8.000087     11.687378
  H      19.777213     -6.735070     12.634930
  C      19.312999    -20.521999      7.175001
  C      18.254033    -19.510708      7.530657
  C      16.980740    -19.610653      6.978594
  C      18.499537    -18.465389      8.414677
  C      15.981403    -18.718099      7.309128
  C      17.506753    -17.563114      8.755175
  C      16.229626    -17.686920      8.215997
  O      15.216507    -16.851273      8.529154
  H      19.761228    -20.307815      6.204785
  H      18.880691    -21.520264      7.128616
  H      20.107331    -20.519403      7.918732
  H      16.765952    -20.409553      6.279253
  H      19.482299    -18.355553      8.852681
  H      14.992514    -18.809792      6.884124
  H      17.681495    -16.748325      9.443893
  H      15.457485    -16.215990      9.237702
  C      19.522001    -11.465000      7.842998
  C      19.215317    -10.566245      9.037052
  N      19.316513    -11.302550     10.270281
  C      20.219827    -11.026070     11.237584
  O      21.157206    -10.258674     11.114399
  N      20.028700    -11.782877     12.382148
  H      19.317472    -10.958064      6.899981
  H      18.946941    -12.384818      7.903684
  H      20.577713    -11.732631      7.857126
  H      19.922322     -9.738463      9.099693
  H      18.208760    -10.145480      8.945357
  H      18.683236    -12.081161     10.407775
  H      20.516989    -11.421153     13.185318
  H      19.076469    -12.066823     12.567397
114
Coordinates from ORCA-job 01_xtb_cit_react E -175.321647535230
  C      16.273143    -11.053573     12.423389
  C      15.048449    -11.169313     13.257105
  C      13.918466    -11.684160     12.700692
  C      13.815389    -11.879461     11.271664
  C      14.778239    -11.478453     10.450585
  C      16.007417    -10.761221     10.930322
  C      12.800529    -12.233919     13.531835
  O      12.798388    -12.071357     14.769981
  O      11.958747    -12.931896     12.903105
  O      15.874303     -9.398026     10.628672
  O      17.007161    -12.304088     12.560883
  C      16.324760    -13.464114     12.242421
  C      16.372261    -13.919885     10.802167
  O      17.282550    -13.482544     10.070554
  O      15.486541    -14.726363     10.407035
  C      15.704717    -14.186724     13.169411
  H      16.970429    -10.299348     12.802666
  H      15.124965    -11.036794     14.320361
  H      12.918711    -12.356447     10.905576
  H      14.675845    -11.595650      9.386792
  H      16.875904    -11.162175     10.388397
  H      16.761395     -8.885627     10.907882
  H      15.231665    -15.116621     12.908505
  H      15.660557    -13.867482     14.196290
  O      12.830623    -15.273008     11.422608
  H      13.721094    -15.088174     11.093871
  H      12.549470    -14.489760     11.905845
  C      12.785000    -13.909001      5.224001
  C      13.469387    -12.593365      5.605040
  N      14.845479    -12.715914      6.053505
  C      15.242523    -13.155405      7.272424
  N      14.485252    -13.932555      8.017686
  N      16.467157    -12.865263      7.663302
  H      13.453745    -14.682279      4.845952
  H      12.040675    -13.710449      4.456475
  H      12.257886    -14.338474      6.074723
  H      13.496497    -11.944904      4.728555
  H      12.871917    -12.091822      6.375513
  H      15.469174    -12.023528      5.665071
  H      14.837307    -14.273422      8.934702
  H      13.614224    -14.294166      7.685257
  H      16.815615    -13.186853      8.608746
  H      16.924389    -12.063394      7.278677
  C       8.412999    -16.813004     15.233001
  C       9.879744    -16.999357     15.637044
  N      10.477430    -15.819823     16.223364
  C      10.808660    -14.714562     15.495636
  N      10.662061    -14.682966     14.192006
  N      11.244555    -13.630926     16.114023
  H       7.736528    -17.001581     16.066623
  H       8.156813    -17.510727     14.442386
  H       8.248773    -15.805998     14.865337
  H       9.972426    -17.810427     16.361192
  H      10.475262    -17.274605     14.761264
  H      10.376116    -15.697516     17.216646
  H      11.152678    -13.873080     13.642634
  H      10.457183    -15.520405     13.680228
  H      11.835099    -12.904527     15.543415
  H      11.412744    -13.671986     17.104733
  C      13.998001     -9.220000      7.724999
  O      15.144248     -9.986763      7.957123
  C      14.359841     -7.786577      7.331336
  H      13.329681     -9.174595      8.584877
  H      13.451767     -9.704824      6.904054
  H      15.561021     -9.629268      8.773796
  H      14.930314     -7.331449      8.131618
  H      14.970578     -7.775339      6.431797
  H      13.463755     -7.206900      7.155487
  C      14.518001     -6.670000     12.632999
  S      13.213624     -7.749369     13.297572
  H      14.324364     -6.427596     11.588086
  H      15.473075     -7.173984     12.718118
  H      14.521187     -5.760852     13.228350
  H      13.764042     -8.908898     12.950907
  C      20.972000     -6.019000     10.963999
  C      20.046115     -7.042819     11.619195
  C      18.713156     -7.386215     10.879817
  O      18.001582     -8.259920     11.479929
  O      18.443213     -6.841015      9.814861
  H      20.586780     -5.000259     11.007275
  H      21.098609     -6.278039      9.919705
  H      21.945057     -6.038135     11.446118
  H      20.578766     -7.996104     11.690985
  H      19.787743     -6.731094     12.633645
  C      19.312999    -20.521999      7.175001
  C      18.257599    -19.507402      7.532415
  C      16.984952    -19.598528      6.976711
  C      18.505926    -18.468314      8.423754
  C      15.989616    -18.702168      7.308711
  C      17.516917    -17.562054      8.765111
  C      16.240747    -17.676085      8.220779
  O      15.231069    -16.836318      8.532221
  H      19.761228    -20.307815      6.204785
  H      18.877161    -21.518768      7.126881
  H      20.108134    -20.523845      7.917888
  H      16.766941    -20.394737      6.276362
  H      19.487872    -18.366676      8.867014
  H      15.001283    -18.787304      6.881272
  H      17.695727    -16.751898      9.458306
  H      15.472587    -16.201981      9.241628
  C      19.522001    -11.465000      7.842998
  C      19.231636    -10.559557      9.039483
  N      19.328653    -11.293294     10.275047
  C      20.227601    -11.012880     11.246638
  O      21.165507    -10.245385     11.125780
  N      20.031223    -11.762448     12.396131
  H      19.317472    -10.958064      6.899981
  H      18.938189    -12.379496      7.910360
  H      20.576217    -11.744768      7.849827
  H      19.950769     -9.739127      9.097539
  H      18.227863    -10.125590      8.950906
  H      18.694220    -12.069351     10.411780
  H      20.512076    -11.392121     13.201008
  H      19.079365    -12.051552     12.576406
114
Coordinates from ORCA-job 01_xtb_cit_react E -175.322258161800
  C      16.277357    -11.058919     12.416751
  C      15.040694    -11.181465     13.258665
  C      13.918265    -11.675594     12.720556
  C      13.817481    -11.870016     11.285734
  C      14.780466    -11.472238     10.455979
  C      16.011680    -10.759280     10.930414
  C      12.798534    -12.225478     13.546377
  O      12.794762    -12.066089     14.784522
  O      11.957720    -12.922760     12.913701
  O      15.878861     -9.395181     10.628808
  O      17.009607    -12.310875     12.547176
  C      16.327811    -13.468662     12.231053
  C      16.371662    -13.921773     10.792713
  O      17.280137    -13.482515     10.060516
  O      15.483287    -14.724956     10.399629
  C      15.707267    -14.187561     13.161570
  H      16.974917    -10.309096     12.801588
  H      15.122766    -11.041822     14.324739
  H      12.920016    -12.344621     10.917424
  H      14.676099    -11.590559      9.390447
  H      16.878022    -11.159457     10.386963
  H      16.758432     -8.882173     10.913490
  H      15.231547    -15.116258     12.903534
  H      15.662617    -13.865110     14.188751
  O      12.828809    -15.265824     11.423973
  H      13.720213    -15.083700     11.092841
  H      12.547420    -14.480456     11.909600
  C      12.785000    -13.909001      5.224001
  C      13.466455    -12.590982      5.600369
  N      14.842086    -12.712327      6.048532
  C      15.238652    -13.155754      7.266337
  N      14.480131    -13.928468      8.013520
  N      16.463774    -12.864930      7.657353
  H      13.453745    -14.682279      4.845952
  H      12.038286    -13.713764      4.457792
  H      12.260719    -14.337754      6.076968
  H      13.492996    -11.944842      4.722054
  H      12.867794    -12.088419      6.369248
  H      15.466221    -12.019005      5.657651
  H      14.833593    -14.270911      8.928590
  H      13.610675    -14.286341      7.684228
  H      16.812399    -13.185873      8.602135
  H      16.927415    -12.056122      7.272358
  C       8.412999    -16.813004     15.233001
  C       9.880283    -17.000008     15.638249
  N      10.476187    -15.819518     16.227932
  C      10.807375    -14.713077     15.501843
  N      10.664775    -14.681128     14.197361
  N      11.240348    -13.628475     16.122237
  H       7.736528    -17.001581     16.066622
  H       8.156261    -17.510125     14.440746
  H       8.249095    -15.804007     14.866366
  H       9.972360    -17.813084     16.360413
  H      10.478781    -17.272534     14.762809
  H      10.367430    -15.693972     17.221917
  H      11.153516    -13.869263     13.650479
  H      10.464394    -15.523500     13.681328
  H      11.830408    -12.901096     15.553466
  H      11.407596    -13.670262     17.112978
  C      13.998001     -9.220000      7.724999
  O      15.147514     -9.986085      7.958656
  C      14.356904     -7.786696      7.328714
  H      13.329681     -9.174595      8.584877
  H      13.454424     -9.708079      6.904899
  H      15.563393     -9.627270      8.776293
  H      14.941262     -7.330437      8.124351
  H      14.956764     -7.780712      6.421679
  H      13.454575     -7.200891      7.165007
  C      14.518001     -6.670000     12.632999
  S      13.223364     -7.770860     13.279760
  H      14.324364     -6.427596     11.588086
  H      15.475734     -7.164729     12.721565
  H      14.504559     -5.766672     13.231110
  H      13.800159     -8.916477     12.927127
  C      20.972000     -6.019000     10.963999
  C      20.038166     -7.049893     11.609902
  C      18.704290     -7.384138     10.873889
  O      17.995258     -8.245507     11.482056
  O      18.431005     -6.843760      9.806756
  H      20.586780     -5.000259     11.007275
  H      21.113833     -6.273445      9.912511
  H      21.944853     -6.036209     11.462682
  H      20.564303     -8.003737     11.668938
  H      19.785472     -6.753494     12.628857
  C      19.312999    -20.521999      7.175001
  C      18.255291    -19.509514      7.530808
  C      16.982754    -19.604068      6.978125
  C      18.500755    -18.470239      8.420687
  C      15.985949    -18.708732      7.308627
  C      17.510558    -17.565683      8.761250
  C      16.235025    -17.680740      8.217175
  O      15.224678    -16.840606      8.526432
  H      19.761228    -20.307815      6.204785
  H      18.879585    -21.519165      7.128207
  H      20.107197    -20.521275      7.917842
  H      16.765272    -20.403537      6.284918
  H      19.481672    -18.366467      8.863398
  H      14.998433    -18.796329      6.883181
  H      17.688659    -16.756108      9.454217
  H      15.466800    -16.205270      9.234967
  C      19.522001    -11.465000      7.842998
  C      19.239632    -10.558386      9.037916
  N      19.335493    -11.294264     10.271708
  C      20.237702    -11.022759     11.240958
  O      21.177513    -10.258480     11.119953
  N      20.038127    -11.774090     12.389706
  H      19.317472    -10.958064      6.899981
  H      18.934301    -12.375638      7.910705
  H      20.575035    -11.750403      7.847630
  H      19.964718     -9.741522      9.095436
  H      18.237575    -10.118065      8.950621
  H      18.698286    -12.068983     10.405936
  H      20.517580    -11.405623     13.196701
  H      19.084700    -12.062369     12.565759
114
Coordinates from ORCA-job 01_xtb_cit_react E -175.322411703940
  C      16.283595    -11.055774     12.413906
  C      15.049187    -11.184177     13.248384
  C      13.925868    -11.679705     12.713708
  C      13.817160    -11.871420     11.283233
  C      14.776771    -11.472610     10.454213
  C      16.010048    -10.759039     10.926191
  C      12.806332    -12.228300     13.544052
  O      12.804219    -12.070476     14.783248
  O      11.963205    -12.925144     12.913377
  O      15.874797     -9.390783     10.622896
  O      17.017305    -12.305653     12.542381
  C      16.332708    -13.463588     12.229219
  C      16.374499    -13.915709     10.789839
  O      17.281376    -13.472215     10.057070
  O      15.486750    -14.723391     10.395762
  C      15.713579    -14.183168     13.160340
  H      16.981308    -10.303167     12.793616
  H      15.135344    -11.041412     14.318639
  H      12.919189    -12.345505     10.917392
  H      14.672224    -11.592132      9.389197
  H      16.875235    -11.160538     10.378608
  H      16.754910     -8.876331     10.909088
  H      15.234753    -15.110891     12.901959
  H      15.676462    -13.861676     14.184681
  O      12.836165    -15.274423     11.427075
  H      13.727164    -15.088862     11.091765
  H      12.553054    -14.485921     11.909644
  C      12.785000    -13.909001      5.224001
  C      13.465578    -12.589171      5.593751
  N      14.840626    -12.706745      6.044942
  C      15.235120    -13.144638      7.264836
  N      14.471090    -13.928103      8.009043
  N      16.461083    -12.850804      7.657444
  H      13.453745    -14.682279      4.845952
  H      12.035453    -13.717412      4.459869
  H      12.264436    -14.335592      6.079828
  H      13.492355    -11.947653      4.711891
  H      12.864946    -12.083290      6.359428
  H      15.463035    -12.020301      5.655152
  H      14.828170    -14.268143      8.925160
  H      13.599979    -14.307888      7.668496
  H      16.811257    -13.173902      8.601155
  H      16.925180    -12.044859      7.273469
  C       8.412999    -16.813004     15.233001
  C       9.877737    -17.004583     15.639249
  N      10.479763    -15.826690     16.225412
  C      10.811657    -14.719629     15.500000
  N      10.669455    -14.686283     14.196383
  N      11.243379    -13.634440     16.121095
  H       7.736528    -17.001581     16.066623
  H       8.154600    -17.512536     14.439598
  H       8.250205    -15.802749     14.864992
  H       9.966955    -17.814358     16.365407
  H      10.471846    -17.283494     14.764680
  H      10.370813    -15.702827     17.218691
  H      11.158022    -13.874029     13.649594
  H      10.459547    -15.519618     13.683025
  H      11.835830    -12.906630     15.551971
  H      11.410054    -13.676706     17.111691
  C      13.998001     -9.220000      7.724999
  O      15.148020     -9.982206      7.963846
  C      14.350299     -7.784726      7.325873
  H      13.329681     -9.174595      8.584877
  H      13.456852     -9.712141      6.903768
  H      15.561323     -9.624243      8.780886
  H      14.935693     -7.324026      8.120398
  H      14.948000     -7.778712      6.416830
  H      13.444135     -7.201811      7.163083
  C      14.518001     -6.670000     12.632999
  S      13.216838     -7.766669     13.281196
  H      14.324364     -6.427596     11.588086
  H      15.479885     -7.167898     12.719196
  H      14.506264     -5.762636     13.230929
  H      13.783049     -8.902225     12.908467
  C      20.972000     -6.019000     10.963999
  C      20.038494     -7.046984     11.611817
  C      18.703654     -7.373947     10.868274
  O      17.997747     -8.230098     11.474624
  O      18.426663     -6.827268      9.801755
  H      20.586780     -5.000259     11.007275
  H      21.110031     -6.274250      9.915426
  H      21.944084     -6.037643     11.458577
  H      20.568738     -8.002632     11.677754
  H      19.777955     -6.744940     12.633933
  C      19.312999    -20.521999      7.175001
  C      18.259192    -19.506672      7.532457
  C      16.989275    -19.592625      6.971419
  C      18.506353    -18.470442      8.425593
  C      15.995362    -18.694159      7.300876
  C      17.518481    -17.563033      8.766291
  C      16.244973    -17.671499      8.216398
  O      15.235849    -16.831314      8.527289
  H      19.761228    -20.307815      6.204785
  H      18.875801    -21.517726      7.126756
  H      20.107472    -20.524997      7.917884
  H      16.773303    -20.383814      6.263849
  H      19.486652    -18.371052      8.870361
  H      15.008957    -18.774976      6.869221
  H      17.696551    -16.756394      9.463629
  H      15.476694    -16.196924      9.237086
  C      19.522001    -11.465000      7.842998
  C      19.249841    -10.551474      9.034772
  N      19.341172    -11.284257     10.271422
  C      20.239556    -11.009031     11.242902
  O      21.178547    -10.243338     11.122774
  N      20.042197    -11.762441     12.387545
  H      19.317472    -10.958064      6.899981
  H      18.925631    -12.368973      7.918114
  H      20.570573    -11.757074      7.846230
  H      19.979262     -9.742732      9.088532
  H      18.253817    -10.103521      8.951348
  H      18.701132    -12.057740     10.405494
  H      20.517747    -11.393238     13.194537
  H      19.089942    -12.053261     12.559753
114
Coordinates from ORCA-job 01_xtb_cit_react E -175.322828972660
  C      16.285998    -11.050436     12.413535
  C      15.056074    -11.179651     13.254601
  C      13.934081    -11.683072     12.717321
  C      13.823401    -11.872108     11.285991
  C      14.778229    -11.468347     10.455042
  C      16.011121    -10.753810     10.925971
  C      12.816072    -12.234063     13.547950
  O      12.814277    -12.076403     14.787394
  O      11.972773    -12.930122     12.917179
  O      15.876668     -9.387750     10.624190
  O      17.023950    -12.298802     12.540781
  C      16.340600    -13.457785     12.228289
  C      16.379931    -13.909181     10.788170
  O      17.284197    -13.464879     10.052890
  O      15.491623    -14.715700     10.395649
  C      15.722790    -14.177808     13.159557
  H      16.982041    -10.296137     12.793599
  H      15.143005    -11.037715     14.322301
  H      12.924921    -12.346975     10.922036
  H      14.671875    -11.585762      9.390044
  H      16.875577    -11.155297     10.377248
  H      16.757778     -8.874220     10.912660
  H      15.244637    -15.105747     12.901105
  H      15.684306    -13.856669     14.185414
  O      12.845261    -15.272663     11.427936
  H      13.734630    -15.085318     11.092111
  H      12.561312    -14.485514     11.909047
  C      12.785000    -13.909001      5.224001
  C      13.463800    -12.587347      5.590128
  N      14.838652    -12.702920      6.042771
  C      15.233936    -13.139109      7.263445
  N      14.472776    -13.914071      8.012692
  N      16.458767    -12.845089      7.654186
  H      13.453745    -14.682279      4.845952
  H      12.033687    -13.719587      4.460868
  H      12.266277    -14.334875      6.081534
  H      13.491394    -11.948942      4.706104
  H      12.861483    -12.079299      6.353035
  H      15.461093    -12.014291      5.651162
  H      14.832149    -14.257449      8.926079
  H      13.606406    -14.291553      7.676439
  H      16.811720    -13.167502      8.597336
  H      16.922628    -12.041730      7.266712
  C       8.412999    -16.813004     15.233001
  C       9.878349    -17.007830     15.640166
  N      10.482127    -15.830365     16.228391
  C      10.819134    -14.725072     15.502221
  N      10.681574    -14.694150     14.197672
  N      11.253123    -13.640999     16.122755
  H       7.736528    -17.001581     16.066622
  H       8.153519    -17.509243     14.438387
  H       8.252772    -15.802010     14.867967
  H       9.965829    -17.819257     16.365461
  H      10.473912    -17.287230     14.765974
  H      10.369461    -15.703896     17.220584
  H      11.170724    -13.881943     13.651074
  H      10.469411    -15.528271     13.683265
  H      11.847115    -12.914199     15.553652
  H      11.418581    -13.682138     17.113899
  C      13.998001     -9.220000      7.724999
  O      15.151098     -9.976766      7.964043
  C      14.345177     -7.783845      7.323703
  H      13.329681     -9.174595      8.584877
  H      13.459902     -9.716244      6.904957
  H      15.561136     -9.618362      8.783215
  H      14.926913     -7.320369      8.117655
  H      14.943607     -7.774670      6.415530
  H      13.437719     -7.206634      7.158993
  C      14.518001     -6.670000     12.632999
  S      13.225582     -7.781429     13.270958
  H      14.324364     -6.427596     11.588086
  H      15.480522     -7.161298     12.720629
  H      14.497260     -5.767078     13.235340
  H      13.786288     -8.913973     12.866571
  C      20.972000     -6.019000     10.963999
  C      20.040760     -7.046701     11.612978
  C      18.705043     -7.376365     10.873438
  O      17.996294     -8.236139     11.481109
  O      18.429230     -6.829571      9.809240
  H      20.586780     -5.000259     11.007275
  H      21.110166     -6.274729      9.915936
  H      21.943804     -6.037122     11.458360
  H      20.571198     -8.001052     11.676717
  H      19.783686     -6.744800     12.633524
  C      19.312999    -20.521999      7.175001
  C      18.260387    -19.505520      7.532434
  C      16.991250    -19.586766      6.969000
  C      18.508183    -18.473545      8.430305
  C      15.999200    -18.686262      7.298792
  C      17.522284    -17.564227      8.770968
  C      16.249816    -17.666441      8.217001
  O      15.242590    -16.823189      8.525948
  H      19.761228    -20.307815      6.204785
  H      18.874598    -21.517277      7.126061
  H      20.107668    -20.526504      7.917660
  H      16.773687    -20.377350      6.262901
  H      19.487406    -18.379324      8.879280
  H      15.013651    -18.762856      6.864669
  H      17.702334    -16.760765      9.471009
  H      15.484184    -16.189469      9.236211
  C      19.522001    -11.465000      7.842998
  C      19.263000    -10.547882      9.034629
  N      19.351391    -11.278919     10.272245
  C      20.249224    -11.005030     11.244940
  O      21.190099    -10.241986     11.125943
  N      20.047480    -11.754669     12.392307
  H      19.317472    -10.958064      6.899981
  H      18.919541    -12.364669      7.922228
  H      20.568725    -11.766163      7.841059
  H      20.000737     -9.745059      9.084354
  H      18.270203    -10.089970      8.953018
  H      18.709235    -12.049450     10.405847
  H      20.518480    -11.381836     13.200987
  H      19.094619    -12.047933     12.560414
114
Coordinates from ORCA-job 01_xtb_cit_react E -175.323083037140
  C      16.288578    -11.047313     12.411217
  C      15.061668    -11.180156     13.256211
  C      13.939426    -11.688730     12.720492
  C      13.827477    -11.875438     11.288194
  C      14.778644    -11.466134     10.455020
  C      16.011770    -10.749770     10.924493
  C      12.822969    -12.241817     13.550332
  O      12.822793    -12.085780     14.789296
  O      11.978933    -12.936425     12.919416
  O      15.877226     -9.385312     10.622157
  O      17.030191    -12.293873     12.536762
  C      16.348326    -13.453737     12.224675
  C      16.382798    -13.902017     10.783702
  O      17.284287    -13.455404     10.046496
  O      15.493659    -14.707221     10.392221
  C      15.732932    -14.175031     13.156004
  H      16.982857    -10.291658     12.791923
  H      15.150770    -11.036629     14.321927
  H      12.928946    -12.352299     10.925710
  H      14.670972    -11.582154      9.390375
  H      16.875528    -11.151401     10.374627
  H      16.757906     -8.871055     10.914016
  H      15.255227    -15.102898     12.897361
  H      15.697133    -13.856437     14.183449
  O      12.853369    -15.275769     11.427438
  H      13.741284    -15.084624     11.090107
  H      12.567816    -14.488595     11.906687
  C      12.785000    -13.909001      5.224001
  C      13.461343    -12.584842      5.584272
  N      14.835776    -12.697761      6.038582
  C      15.231112    -13.132152      7.260174
  N      14.471403    -13.903944      8.012149
  N      16.454666    -12.835195      7.651028
  H      13.453745    -14.682279      4.845952
  H      12.030981    -13.723376      4.462349
  H      12.269106    -14.333673      6.084035
  H      13.489705    -11.950714      4.697164
  H      12.856952    -12.073818      6.343572
  H      15.458009    -12.006554      5.646021
  H      14.832939    -14.248250      8.923972
  H      13.608979    -14.285691      7.676351
  H      16.809377    -13.158631      8.593654
  H      16.919302    -12.031935      7.260268
  C       8.412999    -16.813004     15.233001
  C       9.877844    -17.010506     15.638855
  N      10.483339    -15.835764     16.227538
  C      10.825064    -14.733044     15.500384
  N      10.690746    -14.703935     14.195458
  N      11.259069    -13.648891     16.119715
  H       7.736528    -17.001581     16.066622
  H       8.152699    -17.506131     14.437902
  H       8.254946    -15.801528     14.869951
  H       9.963524    -17.823287     16.362388
  H      10.473715    -17.288876     14.764409
  H      10.366899    -15.706704     17.219347
  H      11.179672    -13.891489     13.649674
  H      10.476803    -15.539464     13.680702
  H      11.854652    -12.923798     15.551166
  H      11.422520    -13.687589     17.111307
  C      13.998001     -9.220000      7.724999
  O      15.154518     -9.971564      7.965068
  C      14.339607     -7.783974      7.320124
  H      13.329681     -9.174595      8.584877
  H      13.463518     -9.720817      6.906217
  H      15.560011     -9.614661      8.788004
  H      14.919260     -7.317183      8.111835
  H      14.937194     -7.773298      6.411601
  H      13.430269     -7.212044      7.155333
  C      14.518001     -6.670000     12.632999
  S      13.229811     -7.795931     13.255537
  H      14.324364     -6.427596     11.588086
  H      15.483226     -7.153205     12.722989
  H      14.485107     -5.771481     13.239637
  H      13.782850     -8.922864     12.820974
  C      20.972000     -6.019000     10.963999
  C      20.040556     -7.046848     11.611916
  C      18.704890     -7.374728     10.872960
  O      17.991482     -8.232402     11.480353
  O      18.434219     -6.825469      9.809068
  H      20.586780     -5.000259     11.007275
  H      21.111103     -6.274319      9.916182
  H      21.942899     -6.037298     11.459321
  H      20.570027     -8.001296     11.674253
  H      19.784243     -6.745010     12.630980
  C      19.312999    -20.521999      7.175001
  C      18.261191    -19.504657      7.531543
  C      16.994228    -19.579496      6.962535
  C      18.508832    -18.477606      8.434845
  C      16.004287    -18.676174      7.291061
  C      17.524868    -17.566004      8.774428
  C      16.254688    -17.660506      8.213787
  O      15.249322    -16.814102      8.520349
  H      19.761228    -20.307815      6.204785
  H      18.874302    -21.517158      7.125700
  H      20.107580    -20.527178      7.917606
  H      16.776589    -20.367305      6.254039
  H      19.486289    -18.389113      8.888748
  H      15.020362    -18.747712      6.853009
  H      17.706954    -16.766881      9.478832
  H      15.491588    -16.182237      9.231697
  C      19.522001    -11.465000      7.842998
  C      19.281338    -10.542524      9.034817
  N      19.364977    -11.273154     10.273005
  C      20.262838    -11.004566     11.247243
  O      21.206975    -10.244856     11.131361
  N      20.055597    -11.753860     12.395091
  H      19.317472    -10.958064      6.899981
  H      18.910311    -12.357988      7.927600
  H      20.565815    -11.780069      7.833186
  H      20.030287     -9.748397      9.080171
  H      18.293550    -10.071380      8.955300
  H      18.718118    -12.040117     10.404941
  H      20.521977    -11.378438     13.205893
  H      19.102098    -12.047913     12.558478
114
Coordinates from ORCA-job 01_xtb_cit_react E -175.323386428910
  C      16.294544    -11.040466     12.407646
  C      15.070917    -11.179058     13.258652
  C      13.951658    -11.694424     12.728510
  C      13.836179    -11.877058     11.293974
  C      14.779623    -11.460625     10.455757
  C      16.013269    -10.743229     10.921168
  C      12.835824    -12.248571     13.558312
  O      12.836782    -12.092585     14.798108
  O      11.989958    -12.940957     12.927433
  O      15.878216     -9.380557     10.616993
  O      17.040353    -12.284848     12.530831
  C      16.360733    -13.445704     12.219798
  C      16.387276    -13.887876     10.776906
  O      17.284596    -13.436783     10.036913
  O      15.496838    -14.691509     10.387077
  C      15.749511    -14.169464     13.152319
  H      16.985938    -10.281881     12.787780
  H      15.163635    -11.031075     14.323047
  H      12.937570    -12.355896     10.933858
  H      14.667352    -11.573053      9.391237
  H      16.875485    -11.145613     10.369239
  H      16.758992     -8.864722     10.912592
  H      15.272276    -15.097486     12.893830
  H      15.717608    -13.854288     14.181956
  O      12.866065    -15.277158     11.426653
  H      13.751872    -15.081085     11.087597
  H      12.578226    -14.488969     11.903468
  C      12.785000    -13.909001      5.224001
  C      13.457594    -12.580641      5.573689
  N      14.831000    -12.688244      6.031586
  C      15.226662    -13.117617      7.255029
  N      14.467972    -13.883302      8.011821
  N      16.448573    -12.818113      7.645134
  H      13.453745    -14.682279      4.845952
  H      12.026147    -13.729670      4.465400
  H      12.274628    -14.330885      6.088774
  H      13.487310    -11.954558      4.680945
  H      12.849405    -12.064231      6.326446
  H      15.453734    -11.999773      5.635501
  H      14.833452    -14.229655      8.921375
  H      13.611527    -14.272561      7.675788
  H      16.807141    -13.141232      8.587115
  H      16.912595    -12.020110      7.247263
  C       8.412999    -16.813004     15.233001
  C       9.877939    -17.014359     15.643248
  N      10.483701    -15.837949     16.234000
  C      10.831201    -14.736566     15.505672
  N      10.703021    -14.711068     14.200069
  N      11.267559    -13.652438     16.124386
  H       7.736528    -17.001581     16.066622
  H       8.152205    -17.505478     14.436261
  H       8.257433    -15.799958     14.871976
  H       9.961096    -17.827839     16.367606
  H      10.475961    -17.295210     14.770599
  H      10.361642    -15.705073     17.225128
  H      11.193910    -13.899055     13.654278
  H      10.482634    -15.545732     13.684569
  H      11.867597    -12.929611     15.556012
  H      11.430497    -13.689787     17.116501
  C      13.998001     -9.220000      7.724999
  O      15.159695     -9.962250      7.968467
  C      14.329251     -7.783184      7.314606
  H      13.329681     -9.174595      8.584877
  H      13.470221     -9.729026      6.907912
  H      15.558689     -9.607035      8.796517
  H      14.910120     -7.311521      8.103028
  H      14.923130     -7.772934      6.403669
  H      13.416017     -7.215578      7.152449
  C      14.518001     -6.670000     12.632999
  S      13.231076     -7.811366     13.238474
  H      14.324364     -6.427596     11.588086
  H      15.486954     -7.145831     12.722330
  H      14.470504     -5.775509     13.244800
  H      13.776619     -8.921938     12.753255
  C      20.972000     -6.019000     10.963999
  C      20.040725     -7.047197     11.611055
  C      18.704332     -7.369170     10.871523
  O      17.989119     -8.226597     11.480204
  O      18.436422     -6.817351      9.809986
  H      20.586780     -5.000259     11.007275
  H      21.115183     -6.273732      9.915763
  H      21.941758     -6.037135     11.463412
  H      20.568813     -8.002004     11.671394
  H      19.784777     -6.746132     12.630072
  C      19.312999    -20.521999      7.175001
  C      18.262805    -19.502893      7.530609
  C      16.999740    -19.566910      6.952463
  C      18.509946    -18.483925      8.442620
  C      16.013292    -18.659001      7.279211
  C      17.529341    -17.568358      8.780564
  C      16.263336    -17.650041      8.208997
  O      15.261152    -16.797991      8.511456
  H      19.761228    -20.307815      6.204785
  H      18.873357    -21.516866      7.125077
  H      20.107434    -20.528340      7.917746
  H      16.782289    -20.349749      6.239166
  H      19.484094    -18.405400      8.904911
  H      15.032524    -18.721015      6.833133
  H      17.714449    -16.776531      9.491984
  H      15.504404    -16.169187      9.224733
  C      19.522001    -11.465000      7.842998
  C      19.309781    -10.536212      9.033393
  N      19.385439    -11.265697     10.272067
  C      20.282466    -11.004032     11.248650
  O      21.230396    -10.249427     11.137510
  N      20.067788    -11.752918     12.396241
  H      19.317472    -10.958064      6.899981
  H      18.896939    -12.347459      7.936544
  H      20.559140    -11.798840      7.822786
  H      20.075167     -9.757664      9.071053
  H      18.331768    -10.043448      8.958185
  H      18.730892    -12.025761     10.402795
  H      20.527153    -11.374591     13.210137
  H      19.112961    -12.048046     12.552834
114
Coordinates from ORCA-job 01_xtb_cit_react E -175.323568468810
  C      16.302186    -11.030075     12.405967
  C      15.086030    -11.177557     13.253299
  C      13.961778    -11.709942     12.725816
  C      13.839580    -11.884726     11.294169
  C      14.776712    -11.454246     10.455567
  C      16.013470    -10.733677     10.918710
  C      12.851221    -12.266258     13.559258
  O      12.859224    -12.112878     14.799605
  O      12.000168    -12.953333     12.931056
  O      15.876997     -9.373933     10.609629
  O      17.052999    -12.271207     12.526269
  C      16.375411    -13.433550     12.213825
  C      16.387558    -13.865085     10.767459
  O      17.280174    -13.407173     10.025561
  O      15.494607    -14.665819     10.377206
  C      15.773409    -14.164303     13.145843
  H      16.990017    -10.267712     12.785132
  H      15.183941    -11.022718     14.316729
  H      12.941872    -12.366752     10.938151
  H      14.659215    -11.561570      9.391777
  H      16.875676    -11.137412     10.365185
  H      16.755048     -8.852183     10.911787
  H      15.296769    -15.092351     12.884998
  H      15.752791    -13.859128     14.178884
  O      12.877927    -15.282592     11.418193
  H      13.761678    -15.076654     11.078007
  H      12.586769    -14.494163     11.892827
  C      12.785000    -13.909001      5.224001
  C      13.451208    -12.574308      5.558776
  N      14.823011    -12.673040      6.021818
  C      15.219439    -13.096932      7.246874
  N      14.461405    -13.860145      8.007163
  N      16.439417    -12.792297      7.637958
  H      13.453745    -14.682279      4.845952
  H      12.019285    -13.739564      4.469668
  H      12.282414    -14.327227      6.095088
  H      13.482370    -11.959179      4.658312
  H      12.836501    -12.050800      6.301754
  H      15.447170    -11.987884      5.620688
  H      14.831106    -14.205988      8.915673
  H      13.611044    -14.261437      7.668779
  H      16.801440    -13.114369      8.580427
  H      16.904324    -12.000096      7.229437
  C       8.412999    -16.813004     15.233001
  C       9.876753    -17.019888     15.643132
  N      10.484343    -15.846969     16.234962
  C      10.839800    -14.748602     15.506234
  N      10.713593    -14.724869     14.201003
  N      11.280644    -13.665869     16.122617
  H       7.736528    -17.001581     16.066622
  H       8.150944    -17.504176     14.435640
  H       8.260633    -15.798690     14.873708
  H       9.957167    -17.835202     16.365771
  H      10.473652    -17.300454     14.770436
  H      10.362810    -15.716603     17.225588
  H      11.207468    -13.914381     13.655308
  H      10.479342    -15.554767     13.686957
  H      11.887624    -12.947535     15.553631
  H      11.444434    -13.701935     17.114498
  C      13.998001     -9.220000      7.724999
  O      15.163540     -9.952178      7.974986
  C      14.320753     -7.782988      7.308883
  H      13.329681     -9.174595      8.584877
  H      13.479194     -9.737687      6.908258
  H      15.552956     -9.601740      8.811382
  H      14.901708     -7.306912      8.095197
  H      14.913107     -7.774265      6.396858
  H      13.404937     -7.218611      7.147271
  C      14.518001     -6.670000     12.632999
  S      13.234527     -7.834659     13.200619
  H      14.324364     -6.427596     11.588086
  H      15.494633     -7.129600     12.722692
  H      14.444512     -5.784744     13.254109
  H      13.752792     -8.936465     12.670799
  C      20.972000     -6.019000     10.963999
  C      20.037545     -7.045590     11.609809
  C      18.699503     -7.357579     10.867555
  O      17.976180     -8.204813     11.478587
  O      18.440905     -6.805931      9.803091
  H      20.586780     -5.000259     11.007275
  H      21.117121     -6.273503      9.916585
  H      21.939564     -6.038965     11.466231
  H      20.562123     -8.002822     11.670173
  H      19.779534     -6.741807     12.628245
  C      19.312999    -20.521999      7.175001
  C      18.264160    -19.500995      7.527194
  C      17.008265    -19.549689      6.932738
  C      18.508993    -18.493115      8.451720
  C      16.026167    -18.635424      7.255022
  C      17.532410    -17.571978      8.785286
  C      16.273737    -17.636127      8.195891
  O      15.275406    -16.776715      8.491758
  H      19.761228    -20.307815      6.204785
  H      18.873592    -21.517345      7.124980
  H      20.106904    -20.528070      7.918543
  H      16.793282    -20.324696      6.210030
  H      19.477574    -18.428672      8.927486
  H      15.050827    -18.684201      6.795431
  H      17.720630    -16.789882      9.506336
  H      15.519126    -16.153627      9.208445
  C      19.522001    -11.465000      7.842998
  C      19.347793    -10.528160      9.032217
  N      19.412463    -11.257354     10.271566
  C      20.312067    -11.011982     11.248839
  O      21.268635    -10.268190     11.143507
  N      20.089407    -11.766164     12.391782
  H      19.317472    -10.958064      6.899981
  H      18.879485    -12.332817      7.947517
  H      20.549305    -11.825195      7.807558
  H      20.133904     -9.771069      9.060060
  H      18.383944    -10.008816      8.961170
  H      18.745253    -12.007038     10.400549
  H      20.544806    -11.389916     13.208693
  H      19.132600    -12.057358     12.541498
114
Coordinates from ORCA-job 01_xtb_cit_react E -175.323627365630
  C      16.302950    -11.020465     12.397981
  C      15.080960    -11.170053     13.260711
  C      13.976084    -11.706449     12.746413
  C      13.857451    -11.880957     11.307737
  C      14.782035    -11.449216     10.459196
  C      16.015037    -10.727966     10.912589
  C      12.860907    -12.267865     13.569314
  O      12.864614    -12.116450     14.808853
  O      12.010667    -12.953489     12.936968
  O      15.878851     -9.366308     10.595573
  O      17.052826    -12.262672     12.522541
  C      16.380349    -13.427104     12.211836
  C      16.386841    -13.851536     10.763371
  O      17.276190    -13.385722     10.021465
  O      15.495515    -14.652775     10.372279
  C      15.789529    -14.162581     13.145602
  H      16.990771    -10.257029     12.774537
  H      15.177994    -11.007515     14.321714
  H      12.960121    -12.365776     10.950699
  H      14.657999    -11.556541      9.393636
  H      16.876714    -11.132777     10.358528
  H      16.756680     -8.839027     10.896299
  H      15.316466    -15.092783     12.887219
  H      15.778467    -13.861122     14.179061
  O      12.892168    -15.285850     11.424970
  H      13.774023    -15.075823     11.081080
  H      12.598791    -14.494025     11.895521
  C      12.785000    -13.909001      5.224001
  C      13.447091    -12.570373      5.549597
  N      14.817220    -12.661007      6.018909
  C      15.212879    -13.084988      7.244271
  N      14.454209    -13.851866      8.005507
  N      16.432051    -12.773899      7.637395
  H      13.453745    -14.682279      4.845952
  H      12.015585    -13.745650      4.471956
  H      12.286241    -14.324733      6.098371
  H      13.480278    -11.963259      4.643439
  H      12.826579    -12.042047      6.284867
  H      15.442221    -11.974531      5.618157
  H      14.827860    -14.195610      8.913871
  H      13.609965    -14.270263      7.660873
  H      16.796082    -13.095904      8.579680
  H      16.897207    -11.977671      7.224478
  C       8.412999    -16.813004     15.233001
  C       9.873604    -17.018300     15.643361
  N      10.480019    -15.848694     16.232970
  C      10.839970    -14.752065     15.505187
  N      10.718103    -14.727029     14.200234
  N      11.277744    -13.669097     16.121603
  H       7.736528    -17.001581     16.066622
  H       8.152879    -17.502664     14.437094
  H       8.261830    -15.800221     14.873535
  H       9.950467    -17.831656     16.366064
  H      10.471559    -17.298546     14.772053
  H      10.358105    -15.720579     17.222775
  H      11.216286    -13.917033     13.658375
  H      10.479616    -15.552948     13.685277
  H      11.889863    -12.950753     15.556006
  H      11.436353    -13.704153     17.113585
  C      13.998001     -9.220000      7.724999
  O      15.167538     -9.944590      7.980758
  C      14.312942     -7.783014      7.299377
  H      13.329681     -9.174595      8.584877
  H      13.483489     -9.746156      6.910018
  H      15.552527     -9.594258      8.818639
  H      14.883453     -7.297911      8.085488
  H      14.912146     -7.774217      6.391918
  H      13.396397     -7.228539      7.126175
  C      14.518001     -6.670000     12.632999
  S      13.246634     -7.858718     13.183763
  H      14.324364     -6.427596     11.588086
  H      15.499515     -7.118817     12.721373
  H      14.425090     -5.790729     13.259471
  H      13.768800     -8.925000     12.589713
  C      20.972000     -6.019000     10.963999
  C      20.036513     -7.044342     11.606874
  C      18.697039     -7.347025     10.863066
  O      17.968799     -8.194857     11.465606
  O      18.443893     -6.787930      9.799374
  H      20.586780     -5.000259     11.007275
  H      21.115185     -6.272763      9.919004
  H      21.937603     -6.041546     11.463963
  H      20.558040     -8.003617     11.666300
  H      19.777325     -6.739617     12.624779
  C      19.312999    -20.521999      7.175001
  C      18.267240    -19.497476      7.527751
  C      17.016603    -19.529772      6.920136
  C      18.511796    -18.499690      8.463417
  C      16.039424    -18.609143      7.240741
  C      17.539806    -17.572517      8.795669
  C      16.286537    -17.619996      8.192783
  O      15.292483    -16.753862      8.485314
  H      19.761228    -20.307815      6.204785
  H      18.871573    -21.516583      7.124452
  H      20.106978    -20.530189      7.918536
  H      16.802555    -20.295527      6.186636
  H      19.476946    -18.447521      8.947888
  H      15.067387    -18.645115      6.771795
  H      17.730791    -16.799627      9.526480
  H      15.536938    -16.135487      9.205574
  C      19.522001    -11.465000      7.842998
  C      19.379088    -10.520961      9.032369
  N      19.433056    -11.252850     10.271170
  C      20.329674    -11.017111     11.253525
  O      21.294450    -10.281712     11.156306
  N      20.096753    -11.777730     12.390423
  H      19.317472    -10.958064      6.899981
  H      18.862900    -12.320260      7.956297
  H      20.541653    -11.848343      7.795600
  H      20.185045     -9.784128      9.054492
  H      18.428106     -9.976802      8.966848
  H      18.755807    -11.993684     10.398830
  H      20.547248    -11.405650     13.211827
  H      19.136355    -12.061960     12.532433
114
Coordinates from ORCA-job 01_xtb_cit_react E -175.323938191980
  C      16.304966    -11.020778     12.402643
  C      15.087242    -11.168631     13.253726
  C      13.974859    -11.705095     12.731041
  C      13.852673    -11.880852     11.297433
  C      14.781759    -11.449348     10.455168
  C      16.014888    -10.728157     10.913414
  C      12.862039    -12.266731     13.560129
  O      12.867894    -12.115473     14.800656
  O      12.012300    -12.954797     12.930152
  O      15.876866     -9.366465     10.601711
  O      17.055902    -12.261749     12.526019
  C      16.381707    -13.426580     12.213584
  C      16.391045    -13.853474     10.764386
  O      17.280254    -13.389166     10.022173
  O      15.500837    -14.657338     10.373460
  C      15.787578    -14.162558     13.146984
  H      16.993709    -10.257799     12.777557
  H      15.183288    -11.008528     14.316676
  H      12.956086    -12.366158     10.940419
  H      14.657976    -11.554336      9.390334
  H      16.876112    -11.132360     10.358070
  H      16.756541     -8.843201     10.900777
  H      15.314823    -15.093209     12.887774
  H      15.771353    -13.859675     14.180150
  O      12.894821    -15.286808     11.422251
  H      13.776425    -15.077662     11.079281
  H      12.600649    -14.495192     11.891378
  C      12.785000    -13.909001      5.224001
  C      13.449660    -12.571473      5.549733
  N      14.819780    -12.663593      6.018809
  C      15.215725    -13.086056      7.244489
  N      14.456306    -13.850666      8.006772
  N      16.435552    -12.775633      7.636777
  H      13.453745    -14.682279      4.845952
  H      12.015744    -13.744040      4.472344
  H      12.286536    -14.324158      6.098690
  H      13.483092    -11.964441      4.643695
  H      12.831254    -12.042363      6.286059
  H      15.444643    -11.982153      5.616868
  H      14.830988    -14.195656      8.914308
  H      13.610999    -14.268551      7.662205
  H      16.799561    -13.097868      8.578361
  H      16.898587    -11.980244      7.225427
  C       8.412999    -16.813004     15.233001
  C       9.876582    -17.019231     15.644981
  N      10.485768    -15.846414     16.234468
  C      10.845483    -14.750022     15.504429
  N      10.724479    -14.727492     14.198815
  N      11.287589    -13.667110     16.120877
  H       7.736528    -17.001581     16.066622
  H       8.150845    -17.504552     14.436038
  H       8.260823    -15.798587     14.873255
  H       9.954073    -17.831821     16.370049
  H      10.474056    -17.303432     14.773747
  H      10.359571    -15.710874     17.225191
  H      11.220826    -13.918124     13.654141
  H      10.490095    -15.558197     13.683545
  H      11.897387    -12.949304     15.552875
  H      11.447433    -13.702427     17.113254
  C      13.998001     -9.220000      7.724999
  O      15.169036     -9.941000      7.978258
  C      14.308309     -7.783565      7.298446
  H      13.329681     -9.174595      8.584877
  H      13.483490     -9.747398      6.911124
  H      15.554716     -9.587367      8.815414
  H      14.885465     -7.297663      8.081197
  H      14.900910     -7.777845      6.386223
  H      13.388968     -7.226672      7.132919
  C      14.518001     -6.670000     12.632999
  S      13.246018     -7.844081     13.209992
  H      14.324364     -6.427596     11.588086
  H      15.498054     -7.126611     12.721350
  H      14.440000     -5.784069     13.254517
  H      13.758931     -8.914835     12.614556
  C      20.972000     -6.019000     10.963999
  C      20.038276     -7.046367     11.608330
  C      18.698518     -7.351138     10.867261
  O      17.975820     -8.204574     11.470632
  O      18.437967     -6.791217      9.807391
  H      20.586780     -5.000259     11.007275
  H      21.117038     -6.273000      9.916821
  H      21.939582     -6.039002     11.465304
  H      20.559407     -8.004591     11.665800
  H      19.782846     -6.745705     12.627934
  C      19.312999    -20.521999      7.175001
  C      18.269044    -19.496283      7.529235
  C      17.018251    -19.528594      6.922319
  C      18.514051    -18.497224      8.463152
  C      16.041533    -18.607997      7.242662
  C      17.542502    -17.569626      8.795532
  C      16.288976    -17.618409      8.194189
  O      15.295236    -16.752906      8.487377
  H      19.761228    -20.307815      6.204785
  H      18.869490    -21.515405      7.124285
  H      20.107106    -20.531759      7.918273
  H      16.804228    -20.293776      6.187618
  H      19.479802    -18.443374      8.945358
  H      15.069447    -18.644682      6.774717
  H      17.732941    -16.796166      9.525907
  H      15.539747    -16.134060      9.207873
  C      19.522001    -11.465000      7.842998
  C      19.375155    -10.520776      9.033120
  N      19.428398    -11.252890     10.271951
  C      20.321138    -11.011156     11.257291
  O      21.282032    -10.271062     11.160116
  N      20.088081    -11.768290     12.395988
  H      19.317472    -10.958064      6.899981
  H      18.863356    -12.320492      7.957162
  H      20.542989    -11.844627      7.799300
  H      20.181221     -9.783863      9.057639
  H      18.423561     -9.977099      8.968750
  H      18.753669    -11.994672     10.400347
  H      20.537870    -11.396090     13.217549
  H      19.129295    -12.056284     12.538505
114
Coordinates from ORCA-job 01_xtb_cit_react E -175.323723714800
  C      16.315259    -11.032359     12.406321
  C      15.088970    -11.190480     13.263361
  C      13.966536    -11.723310     12.743099
  C      13.843384    -11.888315     11.308146
  C      14.783922    -11.449657     10.465916
  C      16.025272    -10.729314     10.926022
  C      12.860262    -12.285080     13.575863
  O      12.874300    -12.142136     14.817320
  O      12.008577    -12.968109     12.943630
  O      15.886046     -9.367464     10.620604
  O      17.057175    -12.278076     12.516261
  C      16.384325    -13.438249     12.197957
  C      16.388185    -13.855830     10.752117
  O      17.278797    -13.389513     10.014020
  O      15.494511    -14.655415     10.361486
  C      15.797395    -14.179782     13.132179
  H      17.006345    -10.276350     12.791145
  H      15.189505    -11.040734     14.329585
  H      12.946805    -12.369826     10.949814
  H      14.656628    -11.548366      9.401399
  H      16.882803    -11.132590     10.367157
  H      16.761929     -8.840659     10.918586
  H      15.325209    -15.109977     12.873008
  H      15.786612    -13.880767     14.166233
  O      12.885674    -15.285600     11.413235
  H      13.769477    -15.076821     11.069374
  H      12.592172    -14.497448     11.890405
  C      12.785000    -13.909001      5.224001
  C      13.446232    -12.569452      5.547122
  N      14.816310    -12.659497      6.013338
  C      15.214812    -13.080505      7.237201
  N      14.454547    -13.843454      7.998379
  N      16.435127    -12.772091      7.629321
  H      13.453745    -14.682279      4.845952
  H      12.013775    -13.746495      4.473800
  H      12.289545    -14.323929      6.100576
  H      13.476997    -11.962476      4.640922
  H      12.827541    -12.042024      6.284158
  H      15.441470    -11.980725      5.607723
  H      14.827707    -14.189372      8.905837
  H      13.606733    -14.252373      7.656358
  H      16.799458    -13.093551      8.570156
  H      16.897444    -11.983694      7.216510
  C       8.412999    -16.813004     15.233001
  C       9.876073    -17.035383     15.640312
  N      10.487891    -15.868372     16.238768
  C      10.848745    -14.770079     15.514588
  N      10.721601    -14.740535     14.209043
  N      11.299417    -13.694535     16.136893
  H       7.736528    -17.001581     16.066623
  H       8.142562    -17.497377     14.431426
  H       8.268385    -15.794536     14.881058
  H       9.952139    -17.855026     16.358663
  H      10.470370    -17.314410     14.764835
  H      10.367796    -15.741327     17.231067
  H      11.218532    -13.931197     13.666117
  H      10.480829    -15.566640     13.691461
  H      11.908173    -12.975867     15.570283
  H      11.462295    -13.737493     17.128773
  C      13.998001     -9.220000      7.724999
  O      15.170405     -9.943680      7.982007
  C      14.311601     -7.784350      7.298004
  H      13.329681     -9.174595      8.584877
  H      13.484995     -9.746780      6.910268
  H      15.556836     -9.591717      8.823771
  H      14.891781     -7.299511      8.081223
  H      14.904299     -7.783145      6.385686
  H      13.393489     -7.222017      7.132536
  C      14.518001     -6.670000     12.632999
  S      13.241566     -7.832606     13.212351
  H      14.324364     -6.427596     11.588086
  H      15.499880     -7.124965     12.724347
  H      14.438041     -5.778912     13.247217
  H      13.763341     -8.916475     12.664335
  C      20.972000     -6.019000     10.963999
  C      20.041564     -7.046277     11.613673
  C      18.700333     -7.350673     10.877458
  O      17.981596     -8.196319     11.488915
  O      18.436400     -6.799562      9.813272
  H      20.586780     -5.000259     11.007275
  H      21.113102     -6.274693      9.914821
  H      21.943140     -6.037280     11.461926
  H      20.564014     -8.007845     11.670414
  H      19.789586     -6.745211     12.635744
  C      19.312999    -20.521999      7.175001
  C      18.267003    -19.495802      7.523166
  C      17.018702    -19.530111      6.910396
  C      18.506470    -18.494804      8.456583
  C      16.039576    -18.609767      7.224545
  C      17.532922    -17.566927      8.782365
  C      16.281934    -17.617660      8.175330
  O      15.286620    -16.751705      8.463414
  H      19.761228    -20.307815      6.204785
  H      18.870672    -21.516153      7.126047
  H      20.105927    -20.528341      7.919936
  H      16.808230    -20.297830      6.177431
  H      19.469443    -18.440166      8.945207
  H      15.070420    -18.647546      6.750507
  H      17.720328    -16.791514      9.511197
  H      15.530151    -16.133613      9.184539
  C      19.522001    -11.465000      7.842998
  C      19.372785    -10.524209      9.031606
  N      19.428098    -11.261363     10.265969
  C      20.322920    -11.026084     11.250633
  O      21.282618    -10.283060     11.153869
  N      20.089461    -11.792069     12.384233
  H      19.317472    -10.958064      6.899981
  H      18.865950    -12.321168      7.954564
  H      20.543452    -11.840505      7.802650
  H      20.177152     -9.787403      9.059008
  H      18.422335     -9.982342      8.967548
  H      18.751025    -12.003488     10.395206
  H      20.543822    -11.431709     13.208335
  H      19.129539    -12.080062     12.526165
114
Coordinates from ORCA-job 01_xtb_cit_react E -175.324108838480
  C      16.310057    -11.021119     12.405790
  C      15.090472    -11.171984     13.258972
  C      13.974431    -11.706330     12.736395
  C      13.850103    -11.879912     11.303047
  C      14.782360    -11.444481     10.461191
  C      16.019230    -10.725410     10.920160
  C      12.866453    -12.271320     13.568983
  O      12.877038    -12.127515     14.810197
  O      12.015780    -12.957343     12.937911
  O      15.880887     -9.362512     10.613482
  O      17.059682    -12.262886     12.526149
  C      16.387897    -13.427322     12.211240
  C      16.393234    -13.848003     10.762168
  O      17.281016    -13.381146     10.020520
  O      15.501501    -14.649016     10.370676
  C      15.803353    -14.170110     13.145102
  H      17.000381    -10.260637     12.783058
  H      15.187630    -11.018956     14.322793
  H      12.953873    -12.363521     10.945538
  H      14.654551    -11.544279      9.396750
  H      16.878475    -11.129469     10.362512
  H      16.758031     -8.837223     10.913519
  H      15.332217    -15.101210     12.884646
  H      15.791438    -13.870004     14.178395
  O      12.896391    -15.279419     11.421540
  H      13.778796    -15.070723     11.077845
  H      12.600795    -14.489368     11.892849
  C      12.785000    -13.909001      5.224001
  C      13.446666    -12.569396      5.547090
  N      14.815676    -12.657228      6.018562
  C      15.213290    -13.077872      7.243410
  N      14.454941    -13.839555      8.007850
  N      16.433002    -12.768278      7.633509
  H      13.453745    -14.682279      4.845952
  H      12.014417    -13.746143      4.473105
  H      12.288258    -14.323834      6.099985
  H      13.480532    -11.964999      4.639205
  H      12.825044    -12.039241      6.280000
  H      15.440936    -11.976264      5.614225
  H      14.831507    -14.184469      8.914543
  H      13.610815    -14.255143      7.666068
  H      16.799762    -13.088025      8.574557
  H      16.895565    -11.979359      7.219987
  C       8.412999    -16.813004     15.233001
  C       9.875643    -17.027586     15.641879
  N      10.488987    -15.858823     16.235617
  C      10.851373    -14.760196     15.510749
  N      10.726973    -14.730889     14.205810
  N      11.300532    -13.682932     16.130702
  H       7.736528    -17.001581     16.066622
  H       8.146761    -17.500166     14.433902
  H       8.265262    -15.797523     14.877329
  H       9.951119    -17.843218     16.363849
  H      10.470673    -17.310130     14.768387
  H      10.369151    -15.731624     17.226444
  H      11.224814    -13.922235     13.663032
  H      10.485010    -15.554909     13.689758
  H      11.910905    -12.963589     15.563407
  H      11.460891    -13.724022     17.122632
  C      13.998001     -9.220000      7.724999
  O      15.170950     -9.938821      7.980640
  C      14.307611     -7.783007      7.295566
  H      13.329681     -9.174595      8.584877
  H      13.485368     -9.749893      6.911118
  H      15.554734     -9.585380      8.818566
  H      14.882159     -7.293503      8.079292
  H      14.903304     -7.778168      6.385467
  H      13.387533     -7.227602      7.124864
  C      14.518001     -6.670000     12.632999
  S      13.254125     -7.849648     13.202008
  H      14.324364     -6.427596     11.588086
  H      15.498972     -7.120603     12.724864
  H      14.435192     -5.784714     13.253941
  H      13.762927     -8.919445     12.605552
  C      20.972000     -6.019000     10.963999
  C      20.039261     -7.045736     11.612143
  C      18.696329     -7.352024     10.877884
  O      17.977487     -8.200451     11.488289
  O      18.427068     -6.797547      9.815825
  H      20.586780     -5.000259     11.007275
  H      21.113699     -6.274430      9.915641
  H      21.942225     -6.038034     11.462540
  H      20.561206     -8.005141     11.668673
  H      19.787792     -6.745341     12.635015
  C      19.312999    -20.521999      7.175001
  C      18.271310    -19.492776      7.527919
  C      17.022699    -19.519510      6.915537
  C      18.514061    -18.497278      8.466583
  C      16.047137    -18.596641      7.233759
  C      17.544171    -17.566687      8.796377
  C      16.293261    -17.609253      8.188277
  O      15.301201    -16.740321      8.477682
  H      19.761228    -20.307815      6.204785
  H      18.866507    -21.514120      7.124426
  H      20.107006    -20.533367      7.918615
  H      16.808713    -20.284017      6.181061
  H      19.476908    -18.449062      8.956820
  H      15.077748    -18.628071      6.759326
  H      17.733895    -16.795056      9.528814
  H      15.544420    -16.122301      9.199756
  C      19.522001    -11.465000      7.842998
  C      19.380384    -10.520886      9.031181
  N      19.432817    -11.255223     10.268976
  C      20.325115    -11.016671     11.254673
  O      21.286135    -10.276211     11.157337
  N      20.091199    -11.778126     12.389443
  H      19.317472    -10.958064      6.899981
  H      18.860632    -12.316930      7.959944
  H      20.541042    -11.845787      7.800874
  H      20.190330     -9.790527      9.056096
  H      18.433814     -9.972188      8.968810
  H      18.754400    -11.994260     10.399140
  H      20.544452    -11.415100     13.212776
  H      19.131808    -12.064472     12.530547
114
Coordinates from ORCA-job 01_xtb_cit_react E -175.324202317820
  C      16.309701    -11.014057     12.405515
  C      15.092673    -11.166273     13.258895
  C      13.982809    -11.706056     12.737735
  C      13.859117    -11.881329     11.303829
  C      14.784709    -11.442731     10.460657
  C      16.017467    -10.721123     10.917274
  C      12.873588    -12.273944     13.567627
  O      12.882751    -12.129804     14.809149
  O      12.022746    -12.960138     12.936427
  O      15.876499     -9.358831     10.608159
  O      17.061577    -12.254214     12.530077
  C      16.392855    -13.421177     12.213836
  C      16.394565    -13.837961     10.761787
  O      17.278928    -13.366268     10.018825
  O      15.505153    -14.642005     10.369657
  C      15.815149    -14.169733     13.147784
  H      16.998774    -10.251056     12.779533
  H      15.187138    -11.008388     14.321764
  H      12.964485    -12.369488     10.946609
  H      14.653398    -11.540584      9.395930
  H      16.877362    -11.124586     10.359651
  H      16.754372     -8.833202     10.905439
  H      15.347717    -15.102617     12.886864
  H      15.805786    -13.872836     14.182526
  O      12.907611    -15.285382     11.424533
  H      13.788325    -15.073444     11.079980
  H      12.610066    -14.492948     11.890973
  C      12.785000    -13.909001      5.224001
  C      13.446211    -12.567649      5.539750
  N      14.813806    -12.651874      6.016160
  C      15.210521    -13.072367      7.242036
  N      14.452595    -13.835724      8.008037
  N      16.429122    -12.756272      7.633441
  H      13.453745    -14.682279      4.845952
  H      12.011679    -13.749512      4.475233
  H      12.291486    -14.321380      6.102791
  H      13.482787    -11.969879      4.627689
  H      12.822224    -12.032382      6.267042
  H      15.439626    -11.973554      5.611110
  H      14.832046    -14.178372      8.914451
  H      13.612432    -14.262923      7.662829
  H      16.795296    -13.076971      8.574516
  H      16.890597    -11.959934      7.217951
  C       8.412999    -16.813004     15.233001
  C       9.875362    -17.024837     15.645150
  N      10.487541    -15.855063     16.237400
  C      10.852091    -14.757972     15.510859
  N      10.730387    -14.730980     14.205396
  N      11.301252    -13.679380     16.129957
  H       7.736528    -17.001581     16.066622
  H       8.148495    -17.502654     14.434684
  H       8.263832    -15.797762     14.875140
  H       9.949523    -17.838422     16.369079
  H      10.471807    -17.309665     14.773442
  H      10.365269    -15.723444     17.228646
  H      11.231510    -13.924363     13.661304
  H      10.490886    -15.559020     13.688978
  H      11.915086    -12.962561     15.561968
  H      11.460013    -13.718987     17.122210
  C      13.998001     -9.220000      7.724999
  O      15.175451     -9.930593      7.983195
  C      14.298614     -7.783559      7.288513
  H      13.329681     -9.174595      8.584877
  H      13.488719     -9.756869      6.913670
  H      15.554771     -9.574852      8.822073
  H      14.868192     -7.287631      8.070092
  H      14.895309     -7.779192      6.379188
  H      13.377023     -7.235013      7.113794
  C      14.518001     -6.670000     12.632999
  S      13.257336     -7.855055     13.208036
  H      14.324364     -6.427596     11.588086
  H      15.502233     -7.118439     12.725567
  H      14.432450     -5.783735     13.253892
  H      13.755912     -8.903545     12.563067
  C      20.972000     -6.019000     10.963999
  C      20.038741     -7.044231     11.611559
  C      18.696700     -7.345218     10.874885
  O      17.974772     -8.200359     11.478309
  O      18.430590     -6.783768      9.817390
  H      20.586780     -5.000259     11.007275
  H      21.112058     -6.274212      9.916423
  H      21.942045     -6.038625     11.460810
  H      20.557048     -8.003863     11.667473
  H      19.788791     -6.744839     12.632550
  C      19.312999    -20.521999      7.175001
  C      18.274134    -19.490877      7.529126
  C      17.029933    -19.506007      6.908250
  C      18.516771    -18.502107      8.474341
  C      16.058507    -18.578572      7.224869
  C      17.550470    -17.567417      8.803422
  C      16.303969    -17.598493      8.186761
  O      15.315805    -16.724511      8.473914
  H      19.761228    -20.307815      6.204785
  H      18.864807    -21.513039      7.123972
  H      20.106936    -20.535401      7.918239
  H      16.817469    -20.262606      6.164244
  H      19.477257    -18.461011      8.968190
  H      15.091693    -18.602111      6.745661
  H      17.742462    -16.802988      9.543139
  H      15.560443    -16.111104      9.199584
  C      19.522001    -11.465000      7.842998
  C      19.403137    -10.515280      9.033047
  N      19.446334    -11.251945     10.269848
  C      20.334657    -11.018388     11.260884
  O      21.298536    -10.280314     11.171555
  N      20.093929    -11.783007     12.392039
  H      19.317472    -10.958064      6.899981
  H      18.847966    -12.306680      7.967474
  H      20.535660    -11.862918      7.792444
  H      20.229281     -9.801012      9.055182
  H      18.466191     -9.946706      8.975820
  H      18.760802    -11.984370     10.398966
  H      20.544235    -11.422150     13.218409
  H      19.133097    -12.065065     12.530471
114
Coordinates from ORCA-job 01_xtb_cit_react E -175.324347388500
  C      16.312046    -11.007215     12.407356
  C      15.097048    -11.161392     13.263442
  C      13.987231    -11.704988     12.740630
  C      13.862260    -11.878324     11.307311
  C      14.785394    -11.435336     10.464173
  C      16.018779    -10.714197     10.920243
  C      12.880228    -12.277346     13.570368
  O      12.891533    -12.137975     14.812274
  O      12.029514    -12.962233     12.938477
  O      15.877044     -9.351386     10.613558
  O      17.065718    -12.246161     12.532642
  C      16.399883    -13.414204     12.215065
  C      16.397747    -13.825915     10.761677
  O      17.279824    -13.351423     10.017728
  O      15.508062    -14.628934     10.369255
  C      15.830966    -14.169307     13.149031
  H      17.001048    -10.243401     12.780181
  H      15.192479    -11.004772     14.326592
  H      12.968064    -12.367403     10.950319
  H      14.650392    -11.529693      9.399718
  H      16.877510    -11.118051     10.360949
  H      16.752575     -8.822618     10.913816
  H      15.366361    -15.103044     12.886350
  H      15.824990    -13.875891     14.184747
  O      12.915055    -15.280573     11.424851
  H      13.795266    -15.066933     11.080211
  H      12.615313    -14.488574     11.890179
  C      12.785000    -13.909001      5.224001
  C      13.443630    -12.565475      5.534730
  N      14.809835    -12.644938      6.015116
  C      15.207587    -13.062079      7.241411
  N      14.451085    -13.823197      8.009925
  N      16.425736    -12.744395      7.631331
  H      13.453745    -14.682279      4.845952
  H      12.009404    -13.752533      4.476833
  H      12.294326    -14.320130      6.105003
  H      13.481880    -11.972365      4.619532
  H      12.815996    -12.027360      6.257022
  H      15.435722    -11.966550      5.608522
  H      14.833733    -14.164559      8.915864
  H      13.613471    -14.254060      7.665572
  H      16.795001    -13.062566      8.572054
  H      16.886372    -11.954058      7.212028
  C       8.412999    -16.813004     15.233001
  C       9.875590    -17.026930     15.643606
  N      10.489751    -15.859129     16.236934
  C      10.857970    -14.762466     15.511819
  N      10.735980    -14.732962     14.206339
  N      11.311606    -13.687137     16.132040
  H       7.736528    -17.001581     16.066622
  H       8.147414    -17.501551     14.434740
  H       8.264624    -15.797637     14.875738
  H       9.949278    -17.842038     16.366279
  H      10.471277    -17.310856     14.771105
  H      10.369632    -15.729868     17.228216
  H      11.238679    -13.927450     13.663579
  H      10.492387    -15.558312     13.689576
  H      11.926394    -12.970717     15.564524
  H      11.469164    -13.728721     17.124400
  C      13.998001     -9.220000      7.724999
  O      15.178440     -9.924187      7.984512
  C      14.292603     -7.784400      7.283581
  H      13.329681     -9.174595      8.584877
  H      13.491690     -9.761791      6.915331
  H      15.553556     -9.568497      8.825051
  H      14.861251     -7.283117      8.063007
  H      14.888526     -7.782128      6.373522
  H      13.368265     -7.239422      7.108046
  C      14.518001     -6.670000     12.632999
  S      13.269028     -7.868846     13.195466
  H      14.324364     -6.427596     11.588086
  H      15.504721     -7.108842     12.727818
  H      14.422387     -5.787191     13.256120
  H      13.758386     -8.908166     12.530194
  C      20.972000     -6.019000     10.963999
  C      20.038334     -7.042792     11.613320
  C      18.693445     -7.342615     10.881203
  O      17.971994     -8.192644     11.489952
  O      18.424107     -6.784194      9.822146
  H      20.586780     -5.000259     11.007275
  H      21.110771     -6.275153      9.915973
  H      21.942848     -6.038784     11.459863
  H      20.556481     -8.003471     11.668406
  H      19.791167     -6.742731     12.636062
  C      19.312999    -20.521999      7.175001
  C      18.277677    -19.486859      7.528960
  C      17.037237    -19.491256      6.899517
  C      18.519379    -18.504824      8.481718
  C      16.069221    -18.559538      7.214520
  C      17.556688    -17.565612      8.808864
  C      16.314253    -17.585374      8.182925
  O      15.329471    -16.706478      8.466348
  H      19.761228    -20.307815      6.204785
  H      18.860956    -21.511500      7.123027
  H      20.107119    -20.538725      7.918355
  H      16.824849    -20.243435      6.151109
  H      19.476491    -18.472600      8.983741
  H      15.105842    -18.573707      6.727180
  H      17.749076    -16.806044      9.553444
  H      15.572787    -16.095266      9.194160
  C      19.522001    -11.465000      7.842998
  C      19.417765    -10.512670      9.031750
  N      19.456108    -11.249377     10.268830
  C      20.342995    -11.020020     11.261834
  O      21.309126    -10.284636     11.174855
  N      20.097491    -11.785928     12.390991
  H      19.317472    -10.958064      6.899981
  H      18.840586    -12.299515      7.973139
  H      20.531426    -11.871968      7.789321
  H      20.252948     -9.809749      9.051056
  H      18.488866     -9.932270      8.977113
  H      18.765072    -11.976199     10.399022
  H      20.548509    -11.430917     13.219335
  H      19.135561    -12.065716     12.526894
114
Coordinates from ORCA-job 01_xtb_cit_react E -175.324466266070
  C      16.317947    -11.010563     12.415506
  C      15.099222    -11.173175     13.270529
  C      13.982652    -11.713111     12.746733
  C      13.856968    -11.880770     11.314273
  C      14.786934    -11.431258     10.473572
  C      16.025030    -10.710409     10.932666
  C      12.882204    -12.289054     13.580322
  O      12.901597    -12.160264     14.822972
  O      12.029037    -12.969736     12.947206
  O      15.880061     -9.346946     10.632827
  O      17.068124    -12.251078     12.536155
  C      16.406181    -13.417503     12.209641
  C      16.398470    -13.819478     10.756540
  O      17.278096    -13.339265     10.014528
  O      15.508587    -14.622454     10.362780
  C      15.852568    -14.185769     13.142407
  H      17.006767    -10.249877     12.795437
  H      15.198431    -11.027171     14.335754
  H      12.963554    -12.368465     10.956100
  H      14.647614    -11.518466      9.409423
  H      16.881817    -11.112242     10.370037
  H      16.752385     -8.814742     10.928704
  H      15.391493    -15.120089     12.876214
  H      15.853924    -13.899368     14.179417
  O      12.914667    -15.279301     11.426398
  H      13.795783    -15.065437     11.079461
  H      12.613521    -14.488002     11.893583
  C      12.785000    -13.909001      5.224001
  C      13.439770    -12.562765      5.529092
  N      14.804582    -12.636753      6.012693
  C      15.203556    -13.053723      7.237940
  N      14.448774    -13.816276      8.006422
  N      16.421168    -12.733416      7.627395
  H      13.453745    -14.682279      4.845952
  H      12.006548    -13.756316      4.479008
  H      12.298385    -14.319098      6.107740
  H      13.478745    -11.973787      4.611250
  H      12.808689    -12.023299      6.247158
  H      15.429661    -11.957788      5.604876
  H      14.833210    -14.155437      8.911941
  H      13.611580    -14.246816      7.663818
  H      16.791094    -13.049978      8.567384
  H      16.880052    -11.941733      7.209494
  C       8.412999    -16.813004     15.233001
  C       9.874728    -17.036728     15.637764
  N      10.491942    -15.875359     16.238569
  C      10.861394    -14.775736     15.520244
  N      10.730645    -14.736344     14.215522
  N      11.324009    -13.707737     16.145497
  H       7.736528    -17.001581     16.066623
  H       8.142363    -17.495066     14.432348
  H       8.269734    -15.796447     14.881230
  H       9.947025    -17.857810     16.352955
  H      10.468115    -17.314485     14.761177
  H      10.381024    -15.755525     17.231501
  H      11.237392    -13.933125     13.673963
  H      10.483567    -15.558090     13.697312
  H      11.940294    -12.991919     15.577978
  H      11.484479    -13.758156     17.136877
  C      13.998001     -9.220000      7.724999
  O      15.182145     -9.921422      7.989022
  C      14.290770     -7.784486      7.278941
  H      13.329681     -9.174595      8.584877
  H      13.492840     -9.764986      6.916621
  H      15.554818     -9.562976      8.830222
  H      14.852443     -7.277549      8.059755
  H      14.892354     -7.783155      6.372952
  H      13.366211     -7.243644      7.094020
  C      14.518001     -6.670000     12.632999
  S      13.283318     -7.874482     13.203864
  H      14.324364     -6.427596     11.588086
  H      15.509064     -7.099185     12.734609
  H      14.416640     -5.784489     13.251170
  H      13.769086     -8.911053     12.533037
  C      20.972000     -6.019000     10.963999
  C      20.039456     -7.039058     11.620515
  C      18.692252     -7.340257     10.893538
  O      17.973830     -8.187932     11.506246
  O      18.417550     -6.785587      9.832830
  H      20.586780     -5.000259     11.007275
  H      21.102226     -6.277804      9.915220
  H      21.946708     -6.038205     11.452434
  H      20.557097     -8.002014     11.677507
  H      19.796529     -6.735744     12.644206
  C      19.312999    -20.521999      7.175001
  C      18.280852    -19.482854      7.526428
  C      17.045079    -19.479450      6.888468
  C      18.518879    -18.505430      8.484660
  C      16.079182    -18.543977      7.198265
  C      17.558428    -17.561954      8.806713
  C      16.321211    -17.572804      8.170259
  O      15.339871    -16.687855      8.447137
  H      19.761228    -20.307815      6.204785
  H      18.857474    -21.509723      7.123162
  H      20.106448    -20.540886      7.918808
  H      16.834136    -20.229898      6.139238
  H      19.471611    -18.479581      8.995811
  H      15.120071    -18.552431      6.703112
  H      17.749037    -16.805663      9.555172
  H      15.582192    -16.080912      9.179228
  C      19.522001    -11.465000      7.842998
  C      19.429489    -10.512181      9.031411
  N      19.463913    -11.254724     10.265096
  C      20.348541    -11.031109     11.260911
  O      21.315150    -10.294953     11.176615
  N      20.099914    -11.804982     12.383907
  H      19.317472    -10.958064      6.899981
  H      18.834273    -12.292517      7.977073
  H      20.528282    -11.878718      7.788202
  H      20.273483     -9.820526      9.052024
  H      18.509139     -9.919414      8.980498
  H      18.765535    -11.975657     10.396435
  H      20.556305    -11.464448     13.215431
  H      19.136511    -12.080019     12.520247
114
Coordinates from ORCA-job 01_xtb_cit_react E -175.324610231620
  C      16.320398    -11.000580     12.417876
  C      15.104354    -11.166070     13.278511
  C      13.993518    -11.706834     12.756447
  C      13.866710    -11.874642     11.322434
  C      14.789141    -11.421580     10.478616
  C      16.025275    -10.701415     10.934790
  C      12.893198    -12.287849     13.587765
  O      12.912359    -12.162914     14.831126
  O      12.039770    -12.967390     12.953259
  O      15.877515     -9.337759     10.637778
  O      17.075145    -12.237861     12.543509
  C      16.418817    -13.407263     12.215475
  C      16.404711    -13.801920     10.759539
  O      17.279442    -13.317327     10.014062
  O      15.515398    -14.604530     10.366626
  C      15.879664    -14.186215     13.148097
  H      17.007387    -10.236544     12.794589
  H      15.203072    -11.020730     14.343413
  H      12.974190    -12.364942     10.964724
  H      14.644396    -11.504208      9.414603
  H      16.880934    -11.102865     10.370299
  H      16.747298     -8.804316     10.937278
  H      15.423850    -15.122330     12.879314
  H      15.885745    -13.905360     14.186860
  O      12.927948    -15.272844     11.433963
  H      13.807607    -15.057638     11.086598
  H      12.623910    -14.480088     11.896875
  C      12.785000    -13.909001      5.224001
  C      13.437514    -12.560240      5.521180
  N      14.799949    -12.628386      6.012343
  C      15.199119    -13.041080      7.239309
  N      14.447499    -13.801670      8.011886
  N      16.415540    -12.715127      7.627292
  H      13.453745    -14.682279      4.845952
  H      12.003375    -13.760459      4.481291
  H      12.302199    -14.316776      6.111007
  H      13.480756    -11.979294      4.598258
  H      12.801342    -12.014982      6.230719
  H      15.424827    -11.949956      5.603531
  H      14.837091    -14.137056      8.917193
  H      13.614889    -14.240369      7.670629
  H      16.788751    -13.030134      8.566698
  H      16.872505    -11.925611      7.204996
  C       8.412999    -16.813004     15.233001
  C       9.875373    -17.033155     15.641503
  N      10.491906    -15.870838     16.242939
  C      10.865361    -14.771579     15.525816
  N      10.735007    -14.730173     14.221031
  N      11.331966    -13.705978     16.152493
  H       7.736528    -17.001581     16.066622
  H       8.144844    -17.499123     14.433328
  H       8.266815    -15.796824     14.877890
  H       9.947546    -17.853615     16.358036
  H      10.470357    -17.312147     14.766415
  H      10.381950    -15.751101     17.236489
  H      11.245684    -13.929555     13.680039
  H      10.487041    -15.551878     13.702019
  H      11.951007    -12.991639     15.585133
  H      11.490506    -13.757940     17.144212
  C      13.998001     -9.220000      7.724999
  O      15.187827     -9.909656      7.990482
  C      14.278571     -7.785313      7.270208
  H      13.329681     -9.174595      8.584877
  H      13.497137     -9.774123      6.920438
  H      15.553540     -9.551059      8.833490
  H      14.838502     -7.268945      8.046889
  H      14.878024     -7.786262      6.362641
  H      13.348804     -7.251835      7.084447
  C      14.518001     -6.670000     12.632999
  S      13.293585     -7.893066     13.189168
  H      14.324364     -6.427596     11.588086
  H      15.513307     -7.088975     12.738273
  H      14.403903     -5.787941     13.254156
  H      13.769071     -8.902835     12.472267
  C      20.972000     -6.019000     10.963999
  C      20.038723     -7.037552     11.621938
  C      18.688811     -7.335611     10.900313
  O      17.969185     -8.179901     11.516131
  O      18.412508     -6.781648      9.839841
  H      20.586780     -5.000259     11.007275
  H      21.100854     -6.278355      9.914308
  H      21.947693     -6.038242     11.451445
  H      20.554006     -8.000756     11.675656
  H      19.800671     -6.735645     12.646735
  C      19.312999    -20.521999      7.175001
  C      18.286169    -19.477527      7.527648
  C      17.057383    -19.454370      6.875075
  C      18.523370    -18.511861      8.498136
  C      16.098113    -18.511157      7.183048
  C      17.569513    -17.560868      8.818282
  C      16.339481    -17.551603      8.167443
  O      15.364692    -16.657883      8.439456
  H      19.761228    -20.307815      6.204785
  H      18.852088    -21.507164      7.121211
  H      20.106582    -20.546506      7.918471
  H      16.847684    -20.193796      6.113200
  H      19.470736    -18.500391      9.020097
  H      15.144416    -18.503889      6.676454
  H      17.761778    -16.814207      9.575963
  H      15.605827    -16.055777      9.176028
  C      19.522001    -11.465000      7.842998
  C      19.456719    -10.507612      9.030144
  N      19.481687    -11.250040     10.264119
  C      20.362509    -11.031177     11.264771
  O      21.332635    -10.298900     11.186877
  N      20.105807    -11.805649     12.385263
  H      19.317472    -10.958064      6.899981
  H      18.820445    -12.279391      7.987292
  H      20.520252    -11.896989      7.780750
  H      20.316833     -9.836058      9.045612
  H      18.550626     -9.893144      8.984139
  H      18.774185    -11.961009     10.396282
  H      20.562197    -11.471410     13.219116
  H      19.141131    -12.077016     12.519158
114
Coordinates from ORCA-job 01_xtb_cit_react E -175.324688315590
  C      16.320384    -10.991206     12.424013
  C      15.108306    -11.160401     13.285379
  C      14.000573    -11.706837     12.763052
  C      13.872166    -11.871596     11.329190
  C      14.789078    -11.414376     10.484487
  C      16.023493    -10.692849     10.939583
  C      12.900423    -12.290087     13.593545
  O      12.920117    -12.167315     14.837409
  O      12.045242    -12.967523     12.958702
  O      15.873249     -9.330421     10.642411
  O      17.079567    -12.225566     12.552665
  C      16.427165    -13.397099     12.220555
  C      16.407095    -13.786945     10.762399
  O      17.277709    -13.298448     10.014614
  O      15.518621    -14.591338     10.369876
  C      15.900145    -14.185560     13.152302
  H      17.003292    -10.224263     12.802291
  H      15.209886    -11.013989     14.349088
  H      12.979830    -12.363246     10.972394
  H      14.641636    -11.493747      9.420366
  H      16.880206    -11.093076     10.374493
  H      16.741743     -8.795731     10.942155
  H      15.448455    -15.122797     12.880639
  H      15.910928    -13.910175     14.192863
  O      12.934625    -15.270468     11.441727
  H      13.813457    -15.053974     11.094222
  H      12.629365    -14.476972     11.901680
  C      12.785000    -13.909001      5.224001
  C      13.435598    -12.558475      5.515462
  N      14.796319    -12.621862      6.012327
  C      15.194591    -13.031873      7.240890
  N      14.445481    -13.795170      8.014716
  N      16.409748    -12.700904      7.628427
  H      13.453745    -14.682279      4.845952
  H      12.000966    -13.763657      4.483242
  H      12.305422    -14.315094      6.113379
  H      13.481796    -11.983008      4.589291
  H      12.795774    -12.009906      6.219220
  H      15.420323    -11.942796      5.604162
  H      14.838010    -14.126190      8.920578
  H      13.614625    -14.241232      7.673687
  H      16.784489    -13.014458      8.567786
  H      16.865302    -11.909857      7.204876
  C       8.412999    -16.813004     15.233001
  C       9.874398    -17.030389     15.643771
  N      10.489257    -15.868316     16.246439
  C      10.864548    -14.768222     15.531047
  N      10.731858    -14.724175     14.226367
  N      11.333787    -13.704197     16.159049
  H       7.736528    -17.001581     16.066622
  H       8.147551    -17.500959     14.434497
  H       8.265358    -15.798219     14.875971
  H       9.946774    -17.850986     16.360398
  H      10.470221    -17.308561     14.769476
  H      10.384206    -15.752171     17.240472
  H      11.247650    -13.926124     13.685527
  H      10.484181    -15.546006     13.706490
  H      11.956684    -12.992263     15.591286
  H      11.493335    -13.758549     17.150538
  C      13.998001     -9.220000      7.724999
  O      15.190238     -9.902868      7.993306
  C      14.271397     -7.786184      7.265505
  H      13.329681     -9.174595      8.584877
  H      13.499326     -9.778988      6.922788
  H      15.551001     -9.542850      8.836336
  H      14.825490     -7.263666      8.040885
  H      14.872745     -7.786732      6.359044
  H      13.339331     -7.260263      7.075691
  C      14.518001     -6.670000     12.632999
  S      13.308296     -7.912129     13.181433
  H      14.324364     -6.427596     11.588086
  H      15.517811     -7.077891     12.740001
  H      14.392602     -5.792263     13.258134
  H      13.776828     -8.901501     12.429613
  C      20.972000     -6.019000     10.963999
  C      20.038862     -7.033987     11.625869
  C      18.687445     -7.330866     10.905408
  O      17.965058     -8.174187     11.523093
  O      18.412652     -6.778421      9.844455
  H      20.586780     -5.000259     11.007275
  H      21.096446     -6.280007      9.915458
  H      21.948271     -6.039033     11.447775
  H      20.552624     -7.997289     11.681318
  H      19.802482     -6.728396     12.649341
  C      19.312999    -20.521999      7.175001
  C      18.290201    -19.474324      7.528543
  C      17.066128    -19.439543      6.868731
  C      18.527439    -18.516127      8.505848
  C      16.111758    -18.491190      7.174973
  C      17.578058    -17.560333      8.824712
  C      16.353414    -17.538080      8.164870
  O      15.383710    -16.638036      8.433057
  H      19.761228    -20.307815      6.204785
  H      18.848601    -21.505468      7.119918
  H      20.106657    -20.550380      7.918016
  H      16.856379    -20.173561      6.102364
  H      19.471331    -18.513692      9.033531
  H      15.161670    -18.474576      6.662254
  H      17.771078    -16.820090      9.588517
  H      15.623699    -16.040355      9.173334
  C      19.522001    -11.465000      7.842998
  C      19.475919    -10.504428      9.029632
  N      19.494147    -11.246558     10.264220
  C      20.373843    -11.031959     11.266768
  O      21.347791    -10.304937     11.191827
  N      20.112677    -11.806427     12.385937
  H      19.317472    -10.958064      6.899981
  H      18.811002    -12.270032      7.994240
  H      20.514218    -11.910584      7.774429
  H      20.347085     -9.845957      9.041112
  H      18.579329     -9.874750      8.986471
  H      18.778925    -11.949243     10.396917
  H      20.570997    -11.476644     13.220763
  H      19.146894    -12.073031     12.520558
114
Coordinates from ORCA-job 01_xtb_cit_react E -175.324799276760
  C      16.322927    -10.990706     12.429573
  C      15.110526    -11.166733     13.292351
  C      14.001751    -11.711529     12.771135
  C      13.871457    -11.870752     11.336609
  C      14.788382    -11.410680     10.491627
  C      16.023835    -10.688527     10.946786
  C      12.903507    -12.295084     13.602315
  O      12.926294    -12.175899     14.846380
  O      12.045511    -12.968838     12.966949
  O      15.870042     -9.326656     10.651842
  O      17.083497    -12.223557     12.556174
  C      16.433827    -13.395161     12.219273
  C      16.409340    -13.780574     10.760728
  O      17.277151    -13.289176     10.011642
  O      15.521179    -14.586163     10.369569
  C      15.916774    -14.191752     13.150001
  H      17.002263    -10.222427     12.812231
  H      15.216185    -11.023499     14.356566
  H      12.978572    -12.361358     10.979999
  H      14.640498    -11.487609      9.427451
  H      16.880329    -11.086339     10.379323
  H      16.736091     -8.791017     10.951971
  H      15.468332    -15.129518     12.875567
  H      15.932312    -13.921997     14.192212
  O      12.935923    -15.270140     11.449688
  H      13.813957    -15.053887     11.099987
  H      12.630818    -14.476025     11.908863
  C      12.785000    -13.909001      5.224001
  C      13.433807    -12.557122      5.511138
  N      14.793868    -12.617658      6.010545
  C      15.191633    -13.026219      7.240029
  N      14.445564    -13.792625      8.013328
  N      16.405749    -12.690982      7.628061
  H      13.453745    -14.682279      4.845952
  H      11.998846    -13.766285      4.485013
  H      12.308457    -14.313867      6.115537
  H      13.481300    -11.984911      4.583041
  H      12.792132    -12.007005      6.211949
  H      15.415291    -11.935121      5.604618
  H      14.839405    -14.120942      8.919441
  H      13.614548    -14.239524      7.674494
  H      16.780661    -13.005519      8.566810
  H      16.859883    -11.895604      7.207477
  C       8.412999    -16.813004     15.233001
  C       9.874424    -17.030038     15.643568
  N      10.487793    -15.869650     16.249892
  C      10.862721    -14.767977     15.537211
  N      10.723660    -14.719146     14.233068
  N      11.334927    -13.706603     16.167702
  H       7.736528    -17.001581     16.066623
  H       8.148143    -17.502035     14.434860
  H       8.264172    -15.797985     14.874969
  H       9.948062    -17.853363     16.357088
  H      10.470714    -17.304104     14.768274
  H      10.387613    -15.757804     17.245422
  H      11.243532    -13.922588     13.692848
  H      10.478306    -15.541541     13.711917
  H      11.959870    -12.996597     15.600195
  H      11.497729    -13.765118     17.158428
  C      13.998001     -9.220000      7.724999
  O      15.191932     -9.899636      7.996133
  C      14.266943     -7.786017      7.263070
  H      13.329681     -9.174595      8.584877
  H      13.499744     -9.781571      6.924485
  H      15.550022     -9.538548      8.839733
  H      14.817752     -7.259510      8.038047
  H      14.869520     -7.786102      6.357448
  H      13.332788     -7.264581      7.070591
  C      14.518001     -6.670000     12.632999
  S      13.316932     -7.923159     13.178822
  H      14.324364     -6.427596     11.588086
  H      15.522498     -7.068275     12.742269
  H      14.382606     -5.794252     13.259156
  H      13.786600     -8.900684     12.414419
  C      20.972000     -6.019000     10.963999
  C      20.039703     -7.032347     11.629713
  C      18.687035     -7.328080     10.910243
  O      17.962736     -8.166697     11.531536
  O      18.415392     -6.779246      9.846907
  H      20.586780     -5.000259     11.007275
  H      21.093487     -6.281359      9.915571
  H      21.949194     -6.039015     11.445428
  H      20.552673     -7.996299     11.685458
  H      19.804820     -6.724293     12.652603
  C      19.312999    -20.521999      7.175001
  C      18.292499    -19.472159      7.527281
  C      17.073802    -19.427409      6.857504
  C      18.528477    -18.519550      8.510287
  C      16.122942    -18.474680      7.160362
  C      17.582353    -17.559689      8.825690
  C      16.362999    -17.527164      8.156543
  O      15.397264    -16.621736      8.420487
  H      19.761228    -20.307815      6.204785
  H      18.846284    -21.504324      7.118768
  H      20.106199    -20.552872      7.918144
  H      16.866380    -20.155409      6.083526
  H      19.468607    -18.524381      9.044592
  H      15.177028    -18.450185      6.639821
  H      17.774395    -16.823534      9.593490
  H      15.635787    -16.028261      9.164605
  C      19.522001    -11.465000      7.842998
  C      19.488551    -10.502833      9.028824
  N      19.502377    -11.244837     10.263190
  C      20.381131    -11.032057     11.267068
  O      21.357854    -10.308452     11.193263
  N      20.116911    -11.805716     12.386200
  H      19.317472    -10.958064      6.899981
  H      18.804975    -12.263752      7.998405
  H      20.509869    -11.919912      7.769983
  H      20.365832     -9.851831      9.037767
  H      18.598141     -9.863654      8.986742
  H      18.781602    -11.942062     10.395423
  H      20.577728    -11.479519     13.221148
  H      19.150791    -12.070858     12.522247
114
Coordinates from ORCA-job 01_xtb_cit_react E -175.324963021360
  C      16.329038    -10.990843     12.440175
  C      15.117576    -11.177211     13.305585
  C      14.004925    -11.717493     12.785982
  C      13.869544    -11.867039     11.350799
  C      14.786894    -11.404402     10.505716
  C      16.024286    -10.682253     10.961141
  C      12.908703    -12.299501     13.619350
  O      12.936778    -12.185918     14.863680
  O      12.044858    -12.966316     12.983917
  O      15.865035     -9.319852     10.670032
  O      17.092554    -12.220487     12.561731
  C      16.446849    -13.392509     12.218667
  C      16.413575    -13.770812     10.759562
  O      17.275880    -13.274753     10.007111
  O      15.525747    -14.578581     10.371978
  C      15.946535    -14.202328     13.147521
  H      17.003691    -10.220376     12.827771
  H      15.231076    -11.040191     14.370698
  H      12.974390    -12.353895     10.994490
  H      14.639356    -11.476620      9.441874
  H      16.880368    -11.074487     10.390053
  H      16.729432     -8.786023     10.969556
  H      15.502213    -15.140925     12.868617
  H      15.971642    -13.943037     14.191685
  O      12.936456    -15.267583     11.469912
  H      13.813437    -15.053025     11.115770
  H      12.632926    -14.471817     11.927823
  C      12.785000    -13.909001      5.224001
  C      13.430969    -12.555268      5.505770
  N      14.790189    -12.611564      6.008811
  C      15.186268    -13.016490      7.240465
  N      14.446603    -13.790387      8.012280
  N      16.398057    -12.674368      7.629068
  H      13.453745    -14.682279      4.845952
  H      11.996129    -13.769759      4.487336
  H      12.312580    -14.312249      6.118450
  H      13.480289    -11.987319      4.575257
  H      12.786852    -12.003509      6.202837
  H      15.405891    -11.920657      5.608664
  H      14.841844    -14.113510      8.919154
  H      13.613902    -14.237578      7.678253
  H      16.773841    -12.991006      8.566650
  H      16.848366    -11.872401      7.216819
  C       8.412999    -16.813004     15.233001
  C       9.874355    -17.027282     15.643332
  N      10.483033    -15.867387     16.256782
  C      10.856072    -14.761646     15.549615
  N      10.704488    -14.703254     14.246795
  N      11.333929    -13.705258     16.184594
  H       7.736528    -17.001581     16.066622
  H       8.150484    -17.503134     14.435639
  H       8.262388    -15.799363     14.874508
  H       9.951013    -17.854886     16.351496
  H      10.472434    -17.293596     14.766352
  H      10.394350    -15.765458     17.254582
  H      11.233041    -13.909104     13.707952
  H      10.462066    -15.524664     13.723350
  H      11.963340    -12.998906     15.617283
  H      11.504980    -13.772175     17.173508
  C      13.998001     -9.220000      7.724999
  O      15.192929     -9.897900      7.999917
  C      14.262451     -7.784528      7.261606
  H      13.329681     -9.174595      8.584877
  H      13.498848     -9.783393      6.926164
  H      15.547972     -9.534583      8.843430
  H      14.808165     -7.253035      8.037370
  H      14.868092     -7.782051      6.358282
  H      13.324838     -7.269511      7.064526
  C      14.518001     -6.670000     12.632999
  S      13.336652     -7.946243     13.172558
  H      14.324364     -6.427596     11.588086
  H      15.530872     -7.047900     12.746526
  H      14.361161     -5.799685     13.261960
  H      13.812014     -8.903109     12.387835
  C      20.972000     -6.019000     10.963999
  C      20.041596     -7.031454     11.636031
  C      18.687246     -7.328714     10.918437
  O      17.960130     -8.158199     11.545794
  O      18.420303     -6.787188      9.849566
  H      20.586780     -5.000259     11.007275
  H      21.090012     -6.283474      9.915299
  H      21.950914     -6.038052     11.442965
  H      20.554696     -7.995479     11.693207
  H      19.807964     -6.719421     12.658028
  C      19.312999    -20.521999      7.175001
  C      18.297325    -19.468047      7.526240
  C      17.084629    -19.412496      6.849081
  C      18.532484    -18.523175      8.515639
  C      16.139370    -18.453528      7.147386
  C      17.591491    -17.557263      8.826903
  C      16.379591    -17.510707      8.146591
  O      15.420911    -16.596116      8.403219
  H      19.761228    -20.307815      6.204785
  H      18.842021    -21.502030      7.117334
  H      20.105698    -20.557344      7.917771
  H      16.876010    -20.138458      6.076518
  H      19.467184    -18.538661      9.058109
  H      15.198572    -18.420581      6.620399
  H      17.782269    -16.826707      9.600107
  H      15.656392    -16.009324      9.153641
  C      19.522001    -11.465000      7.842998
  C      19.505160    -10.501133      9.026076
  N      19.513969    -11.241715     10.261016
  C      20.392790    -11.029762     11.264660
  O      21.374429    -10.312844     11.188431
  N      20.125085    -11.797838     12.386798
  H      19.317472    -10.958064      6.899981
  H      18.797360    -12.254941      8.005093
  H      20.503190    -11.931695      7.764499
  H      20.388525     -9.858605      9.031032
  H      18.622373     -9.851384      8.984033
  H      18.784176    -11.930294     10.392706
  H      20.591264    -11.473988     13.219809
  H      19.158902    -12.061330     12.526937
114
Coordinates from ORCA-job 01_xtb_cit_react E -175.325093298720
  C      16.333266    -10.986531     12.448640
  C      15.124689    -11.179693     13.315733
  C      14.009136    -11.715551     12.797896
  C      13.867592    -11.857496     11.362182
  C      14.784695    -11.395442     10.516799
  C      16.023068    -10.674037     10.972126
  C      12.915070    -12.297658     13.633699
  O      12.947440    -12.189640     14.878148
  O      12.046743    -12.958783     12.997928
  O      15.858763     -9.310747     10.685178
  O      17.101506    -12.212391     12.567277
  C      16.459742    -13.385916     12.221056
  C      16.420095    -13.760023     10.760902
  O      17.277799    -13.261107     10.005059
  O      15.533241    -14.570026     10.376695
  C      15.974319    -14.206176     13.149047
  H      17.004174    -10.213505     12.838053
  H      15.244974    -11.048867     14.381473
  H      12.969714    -12.339522     11.006237
  H      14.637835    -11.464521      9.453017
  H      16.879481    -11.060359     10.397242
  H      16.720773     -8.778369     10.987122
  H      15.534918    -15.146147     12.866735
  H      16.004647    -13.954512     14.195521
  O      12.941057    -15.261437     11.492810
  H      13.816215    -15.048880     11.133335
  H      12.638774    -14.463709     11.948659
  C      12.785000    -13.909001      5.224001
  C      13.428315    -12.553313      5.502153
  N      14.786851    -12.604135      6.008757
  C      15.182194    -13.005552      7.242194
  N      14.449541    -13.786081      8.012761
  N      16.391801    -12.657134      7.631025
  H      13.453745    -14.682279      4.845952
  H      11.994180    -13.772446      4.488776
  H      12.315227    -14.311294      6.120468
  H      13.479132    -11.988889      4.569494
  H      12.781446    -12.000168      6.195520
  H      15.396196    -11.903622      5.615044
  H      14.846708    -14.104940      8.920010
  H      13.615501    -14.233127      7.683663
  H      16.769563    -12.975929      8.567407
  H      16.838016    -11.848842      7.227471
  C       8.412999    -16.813004     15.233001
  C       9.874896    -17.022111     15.641706
  N      10.481469    -15.863855     16.258915
  C      10.852382    -14.753976     15.557230
  N      10.688638    -14.684769     14.256311
  N      11.335446    -13.701964     16.196536
  H       7.736528    -17.001581     16.066622
  H       8.153058    -17.506543     14.437523
  H       8.258606    -15.800538     14.871416
  H       9.954974    -17.852366     16.346290
  H      10.472514    -17.282403     14.763001
  H      10.403176    -15.770579     17.258819
  H      11.224298    -13.892219     13.720732
  H      10.450272    -15.504890     13.729668
  H      11.967485    -12.997549     15.631041
  H      11.513967    -13.777320     17.183476
  C      13.998001     -9.220000      7.724999
  O      15.193352     -9.895029      8.002296
  C      14.256436     -7.784355      7.258932
  H      13.329681     -9.174595      8.584877
  H      13.497513     -9.785313      6.928170
  H      15.545852     -9.528791      8.844742
  H      14.796228     -7.246177      8.034300
  H      14.864878     -7.780106      6.357393
  H      13.314735     -7.277743      7.057606
  C      14.518001     -6.670000     12.632999
  S      13.363664     -7.975617     13.159474
  H      14.324364     -6.427596     11.588086
  H      15.538139     -7.026535     12.747492
  H      14.338358     -5.808183     13.267019
  H      13.845273     -8.907374     12.349251
  C      20.972000     -6.019000     10.963999
  C      20.043267     -7.030594     11.640887
  C      18.685854     -7.327859     10.927457
  O      17.955255     -8.146134     11.564064
  O      18.421302     -6.797831      9.852106
  H      20.586780     -5.000259     11.007275
  H      21.087574     -6.285410      9.915247
  H      21.952136     -6.037467     11.441417
  H      20.555901     -7.994585     11.696818
  H      19.812818     -6.716772     12.663573
  C      19.312999    -20.521999      7.175001
  C      18.302929    -19.462023      7.525931
  C      17.100619    -19.384220      6.829076
  C      18.537067    -18.528504      8.527337
  C      16.163184    -18.415813      7.123380
  C      17.603834    -17.553240      8.833734
  C      16.401555    -17.485852      8.137108
  O      15.450700    -16.561500      8.387869
  H      19.761228    -20.307815      6.204785
  H      18.836158    -21.499157      7.114525
  H      20.105426    -20.563862      7.917767
  H      16.896683    -20.095683      6.037553
  H      19.464819    -18.559880      9.081862
  H      15.230333    -18.364698      6.581383
  H      17.792724    -16.829329      9.613581
  H      15.681559    -15.981499      9.145369
  C      19.522001    -11.465000      7.842998
  C      19.521283    -10.498236      9.023326
  N      19.524270    -11.234677     10.260949
  C      20.402189    -11.020970     11.264467
  O      21.388839    -10.311954     11.183935
  N      20.129915    -11.778196     12.391909
  H      19.317472    -10.958064      6.899981
  H      18.789709    -12.246101      8.011945
  H      20.496672    -11.943901      7.759047
  H      20.411166     -9.864815      9.023490
  H      18.645610     -9.838566      8.980172
  H      18.787148    -11.914628     10.392165
  H      20.600514    -11.453979     13.222084
  H      19.164064    -12.040650     12.534913
114
Coordinates from ORCA-job 01_xtb_cit_react E -175.325224357620
  C      16.338299    -10.980795     12.453761
  C      15.132495    -11.178183     13.327272
  C      14.016017    -11.711093     12.810148
  C      13.869336    -11.846901     11.373126
  C      14.784497    -11.386194     10.526541
  C      16.022575    -10.665646     10.980282
  C      12.922815    -12.294528     13.645756
  O      12.958251    -12.191247     14.890342
  O      12.050934    -12.950366     13.009469
  O      15.853578     -9.300497     10.697343
  O      17.109160    -12.204891     12.567936
  C      16.469592    -13.379645     12.222876
  C      16.424142    -13.750020     10.761382
  O      17.278023    -13.248039     10.002312
  O      15.538682    -14.562672     10.380476
  C      15.995226    -14.206134     13.150803
  H      17.009408    -10.206458     12.839940
  H      15.255722    -11.055283     14.393397
  H      12.968762    -12.324762     11.017267
  H      14.637515    -11.452312      9.462703
  H      16.879190    -11.045571     10.402467
  H      16.715230     -8.770313     11.001131
  H      15.559471    -15.147490     12.867245
  H      16.032253    -13.960819     14.198022
  O      12.946387    -15.255531     11.513801
  H      13.819315    -15.045595     11.150011
  H      12.646624    -14.455325     11.967460
  C      12.785000    -13.909001      5.224001
  C      13.426391    -12.551529      5.498280
  N      14.784354    -12.597676      6.007102
  C      15.179157    -12.995578      7.242161
  N      14.451699    -13.781324      8.011936
  N      16.387010    -12.641436      7.631438
  H      13.453745    -14.682279      4.845952
  H      11.992358    -13.774865      4.490209
  H      12.317628    -14.310075      6.122310
  H      13.477745    -11.990711      4.563364
  H      12.777943    -11.996322      6.188669
  H      15.388986    -11.891660      5.617485
  H      14.850257    -14.097589      8.919521
  H      13.616190    -14.228158      7.686039
  H      16.766088    -12.961656      8.566984
  H      16.827526    -11.827903      7.235456
  C       8.412999    -16.813004     15.233001
  C       9.876328    -17.016841     15.639839
  N      10.480209    -15.858696     16.259318
  C      10.850358    -14.746505     15.561737
  N      10.678215    -14.668337     14.262160
  N      11.338506    -13.699249     16.204937
  H       7.736528    -17.001581     16.066622
  H       8.154850    -17.509975     14.439545
  H       8.254812    -15.801498     14.868514
  H       9.960299    -17.848851     16.342187
  H      10.473331    -17.272569     14.759453
  H      10.411431    -15.773240     17.260314
  H      11.219786    -13.876504     13.729990
  H      10.440433    -15.485933     13.732226
  H      11.972609    -12.996269     15.641547
  H      11.523051    -13.781290     17.190212
  C      13.998001     -9.220000      7.724999
  O      15.193310     -9.892504      8.004950
  C      14.251792     -7.785062      7.255814
  H      13.329681     -9.174595      8.584877
  H      13.496941     -9.787069      6.929532
  H      15.544192     -9.522116      8.845827
  H      14.787658     -7.241206      8.030450
  H      14.862279     -7.781011      6.355419
  H      13.306901     -7.284324      7.051615
  C      14.518001     -6.670000     12.632999
  S      13.388803     -8.002994     13.143248
  H      14.324364     -6.427596     11.588086
  H      15.544738     -7.004784     12.747256
  H      14.314646     -5.816450     13.270944
  H      13.879631     -8.909826     12.311486
  C      20.972000     -6.019000     10.963999
  C      20.045025     -7.030856     11.643415
  C      18.686201     -7.329519     10.933570
  O      17.952174     -8.138394     11.577588
  O      18.423861     -6.809659      9.852428
  H      20.586780     -5.000259     11.007275
  H      21.086193     -6.286448      9.915441
  H      21.952777     -6.036822     11.440178
  H      20.558040     -7.994659     11.698598
  H      19.816958     -6.716954     12.666725
  C      19.312999    -20.521999      7.175001
  C      18.308407    -19.456893      7.526124
  C      17.111982    -19.366777      6.822527
  C      18.541799    -18.532231      8.535435
  C      16.180420    -18.392262      7.114871
  C      17.614830    -17.550230      8.839352
  C      16.419658    -17.468425      8.132907
  O      15.475958    -16.535715      8.378193
  H      19.761228    -20.307815      6.204785
  H      18.831709    -21.496947      7.113556
  H      20.105447    -20.568192      7.917474
  H      16.906410    -20.075526      6.031583
  H      19.463919    -18.576178      9.098061
  H      15.252756    -18.330107      6.566126
  H      17.803194    -16.831840      9.624475
  H      15.703437    -15.961539      9.141378
  C      19.522001    -11.465000      7.842998
  C      19.535684    -10.494761      9.020469
  N      19.532835    -11.226319     10.261284
  C      20.410237    -11.011962     11.265120
  O      21.402139    -10.310700     11.180812
  N      20.132272    -11.757434     12.398078
  H      19.317472    -10.958064      6.899981
  H      18.782678    -12.238533      8.018050
  H      20.491060    -11.954452      7.754586
  H      20.431731     -9.870018      9.016205
  H      18.665513     -9.827803      8.975993
  H      18.788778    -11.898743     10.391924
  H      20.605510    -11.430583     13.225096
  H      19.166429    -12.019424     12.541628
114
Coordinates from ORCA-job 01_xtb_cit_react E -175.325383514130
  C      16.340775    -10.982981     12.456389
  C      15.138441    -11.182288     13.328130
  C      14.016757    -11.712264     12.810948
  C      13.864318    -11.842367     11.374318
  C      14.782880    -11.385426     10.529264
  C      16.020957    -10.665714     10.984508
  C      12.924011    -12.293622     13.648310
  O      12.962163    -12.190691     14.893116
  O      12.049028    -12.945497     13.012850
  O      15.848638     -9.298222     10.707010
  O      17.113261    -12.207510     12.561143
  C      16.473068    -13.382763     12.220622
  C      16.423548    -13.752212     10.758558
  O      17.276591    -13.249192      9.999290
  O      15.539101    -14.567005     10.379723
  C      16.001742    -14.208431     13.150189
  H      17.014267    -10.209885     12.839039
  H      15.262830    -11.068883     14.394130
  H      12.960258    -12.313396     11.017821
  H      14.638105    -11.450324      9.465100
  H      16.879414    -11.036609     10.404797
  H      16.712929     -8.772070     11.010956
  H      15.566917    -15.151143     12.869047
  H      16.041590    -13.965064     14.197670
  O      12.945866    -15.255067     11.530299
  H      13.816933    -15.047632     11.161532
  H      12.651406    -14.453378     11.983773
  C      12.785000    -13.909001      5.224001
  C      13.425327    -12.550405      5.498370
  N      14.784630    -12.593648      6.003565
  C      15.180065    -12.990881      7.238622
  N      14.455735    -13.784228      8.004271
  N      16.386329    -12.633595      7.630427
  H      13.453745    -14.682279      4.845952
  H      11.992500    -13.775022      4.489957
  H      12.317246    -14.310121      6.122133
  H      13.472823    -11.989068      4.563355
  H      12.778538    -11.996012      6.190990
  H      15.385339    -11.881118      5.617630
  H      14.851501    -14.100754      8.912617
  H      13.616228    -14.225859      7.679205
  H      16.764715    -12.956963      8.565059
  H      16.818674    -11.811804      7.246334
  C       8.412999    -16.813004     15.233001
  C       9.877783    -17.015290     15.634824
  N      10.479201    -15.855943     16.255720
  C      10.845367    -14.741571     15.561028
  N      10.665113    -14.656720     14.262419
  N      11.337974    -13.697819     16.206917
  H       7.736528    -17.001581     16.066623
  H       8.153703    -17.509323     14.440194
  H       8.254487    -15.802496     14.869892
  H       9.966044    -17.848593     16.335299
  H      10.471976    -17.267424     14.751113
  H      10.422087    -15.778102     17.257146
  H      11.209491    -13.864061     13.732998
  H      10.426733    -15.471461     13.728816
  H      11.971172    -12.994472     15.644832
  H      11.530662    -13.784417     17.190479
  C      13.998001     -9.220000      7.724999
  O      15.189886     -9.897408      8.005918
  C      14.255637     -7.785404      7.256746
  H      13.329681     -9.174595      8.584877
  H      13.493662     -9.783142      6.928236
  H      15.544052     -9.523683      8.844775
  H      14.787098     -7.240458      8.033679
  H      14.871368     -7.781331      6.359849
  H      13.311564     -7.285906      7.047269
  C      14.518001     -6.670000     12.632999
  S      13.417007     -8.028473     13.129340
  H      14.324364     -6.427596     11.588086
  H      15.549756     -6.985540     12.744281
  H      14.294138     -5.824218     13.274287
  H      13.925743     -8.919090     12.289213
  C      20.972000     -6.019000     10.963999
  C      20.048274     -7.034901     11.642055
  C      18.690447     -7.340704     10.933991
  O      17.952803     -8.142015     11.584341
  O      18.430294     -6.834235      9.845891
  H      20.586780     -5.000259     11.007275
  H      21.087948     -6.285900      9.915413
  H      21.952739     -6.035093     11.440759
  H      20.564169     -7.997253     11.696942
  H      19.820138     -6.723634     12.666479
  C      19.312999    -20.521999      7.175001
  C      18.311729    -19.454217      7.525960
  C      17.119737    -19.357403      6.816964
  C      18.544608    -18.533610      8.538625
  C      16.191553    -18.379428      7.106790
  C      17.621742    -17.547312      8.839911
  C      16.430643    -17.458987      8.127556
  O      15.491266    -16.521622      8.369165
  H      19.761228    -20.307815      6.204785
  H      18.830208    -21.496244      7.114504
  H      20.105682    -20.568680      7.917467
  H      16.915580    -20.063432      6.023574
  H      19.464261    -18.583906      9.104274
  H      15.266816    -18.311871      6.554784
  H      17.808991    -16.830081      9.626629
  H      15.715447    -15.952612      9.137606
  C      19.522001    -11.465000      7.842998
  C      19.534892    -10.493095      9.017883
  N      19.530722    -11.219755     10.262076
  C      20.409393    -11.002431     11.264470
  O      21.404459    -10.305946     11.172592
  N      20.128937    -11.733668     12.404791
  H      19.317472    -10.958064      6.899981
  H      18.783461    -12.238373      8.019277
  H      20.491023    -11.953447      7.755171
  H      20.429374     -9.867274      9.012187
  H      18.661383     -9.831344      8.969021
  H      18.784104    -11.889716     10.391720
  H      20.605156    -11.399826     13.226756
  H      19.163979    -11.997419     12.549186
114
Coordinates from ORCA-job 01_xtb_cit_react E -175.325544489000
  C      16.347309    -10.981042     12.457689
  C      15.148296    -11.181424     13.333614
  C      14.029798    -11.708324     12.818596
  C      13.872445    -11.836728     11.380108
  C      14.787433    -11.382920     10.531723
  C      16.022907    -10.663131     10.984595
  C      12.934910    -12.289955     13.655392
  O      12.974751    -12.190288     14.900444
  O      12.057141    -12.938195     13.019549
  O      15.845561     -9.292648     10.712388
  O      17.121615    -12.206637     12.557715
  C      16.481182    -13.382939     12.223555
  C      16.425707    -13.748132     10.758961
  O      17.276508    -13.241440      9.998966
  O      15.542906    -14.564076     10.380405
  C      16.013644    -14.207905     13.155432
  H      17.025263    -10.209195     12.832999
  H      15.268469    -11.074291     14.400286
  H      12.965998    -12.304065     11.023985
  H      14.638716    -11.444754      9.466869
  H      16.883021    -11.024895     10.403116
  H      16.714151     -8.768841     11.015847
  H      15.579937    -15.152323     12.877957
  H      16.058924    -13.965791     14.202826
  O      12.956659    -15.252917     11.550397
  H      13.825491    -15.046687     11.176192
  H      12.667231    -14.448271     12.001608
  C      12.785000    -13.909001      5.224001
  C      13.424640    -12.548966      5.495769
  N      14.783807    -12.587025      6.001510
  C      15.181063    -12.983712      7.236351
  N      14.460686    -13.780342      8.000951
  N      16.384522    -12.620537      7.629722
  H      13.453745    -14.682279      4.845952
  H      11.992290    -13.775781      4.489890
  H      12.316785    -14.309336      6.122236
  H      13.471149    -11.991321      4.558477
  H      12.777127    -11.991976      6.185580
  H      15.383704    -11.873656      5.615805
  H      14.855575    -14.097224      8.908948
  H      13.621445    -14.220363      7.675681
  H      16.762608    -12.946328      8.564214
  H      16.805700    -11.789940      7.252466
  C       8.412999    -16.813004     15.233001
  C       9.879325    -17.013293     15.631174
  N      10.478938    -15.852924     16.253119
  C      10.845044    -14.736407     15.561765
  N      10.661628    -14.644382     14.264342
  N      11.343754    -13.696501     16.210470
  H       7.736528    -17.001581     16.066622
  H       8.152681    -17.508394     14.440651
  H       8.254335    -15.803292     14.870988
  H       9.970058    -17.847228     16.329635
  H      10.471720    -17.262826     14.744761
  H      10.429440    -15.779379     17.255445
  H      11.209931    -13.852045     13.738047
  H      10.418887    -15.456066     13.726590
  H      11.978622    -12.993178     15.650632
  H      11.541458    -13.787904     17.192602
  C      13.998001     -9.220000      7.724999
  O      15.189624     -9.897200      8.007920
  C      14.257756     -7.786543      7.252856
  H      13.329681     -9.174595      8.584877
  H      13.493864     -9.784132      6.928525
  H      15.544929     -9.519623      8.844192
  H      14.783951     -7.238015      8.030939
  H      14.879176     -7.785296      6.360125
  H      13.315318     -7.288000      7.035279
  C      14.518001     -6.670000     12.632999
  S      13.445206     -8.058523     13.108061
  H      14.324364     -6.427596     11.588086
  H      15.555527     -6.965334     12.743444
  H      14.271387     -5.832751     13.276645
  H      13.971494     -8.916539     12.243271
  C      20.972000     -6.019000     10.963999
  C      20.050436     -7.036710     11.640513
  C      18.694426     -7.347193     10.932312
  O      17.954632     -8.144134     11.586821
  O      18.434766     -6.849809      9.839596
  H      20.586780     -5.000259     11.007275
  H      21.087644     -6.285011      9.914893
  H      21.953736     -6.034193     11.439714
  H      20.569486     -7.997682     11.696492
  H      19.821555     -6.727575     12.666195
  C      19.312999    -20.521999      7.175001
  C      18.316050    -19.449295      7.526020
  C      17.131274    -19.336841      6.806729
  C      18.546242    -18.538375      8.548247
  C      16.208499    -18.352842      7.095498
  C      17.629974    -17.545186      8.847669
  C      16.446260    -17.441406      8.124519
  O      15.513575    -16.496199      8.362895
  H      19.761228    -20.307815      6.204785
  H      18.827295    -21.494928      7.115150
  H      20.105966    -20.570479      7.917567
  H      16.928446    -20.036511      6.008155
  H      19.459864    -18.602055      9.122740
  H      15.289887    -18.271194      6.534634
  H      17.818237    -16.834719      9.640383
  H      15.736406    -15.935125      9.138435
  C      19.522001    -11.465000      7.842998
  C      19.546854    -10.489355      9.015141
  N      19.536782    -11.211157     10.262438
  C      20.414684    -10.994969     11.265461
  O      21.412742    -10.303020     11.170846
  N      20.129101    -11.716375     12.409269
  H      19.317472    -10.958064      6.899981
  H      18.777918    -12.232534      8.024268
  H      20.487580    -11.960083      7.753224
  H      20.447927     -9.874072      9.005546
  H      18.677470     -9.822098      8.966597
  H      18.784853    -11.874577     10.392383
  H      20.605937    -11.376846     13.229096
  H      19.163761    -11.977555     12.552147
114
Coordinates from ORCA-job 01_xtb_cit_react E -175.325735810070
  C      16.353605    -10.986319     12.458940
  C      15.156808    -11.187608     13.337129
  C      14.035715    -11.716070     12.819753
  C      13.877324    -11.841095     11.381798
  C      14.792717    -11.385543     10.534100
  C      16.027078    -10.664050     10.987639
  C      12.939180    -12.297149     13.655334
  O      12.982091    -12.200353     14.900072
  O      12.058942    -12.941075     13.019794
  O      15.845038     -9.292247     10.723701
  O      17.126360    -12.215584     12.549041
  C      16.481895    -13.390554     12.220334
  C      16.420867    -13.751693     10.755327
  O      17.271797    -13.242296      9.997917
  O      15.537534    -14.566243     10.375527
  C      16.012018    -14.210911     13.154725
  H      17.036951    -10.219481     12.833502
  H      15.272944    -11.084615     14.404957
  H      12.969601    -12.305281     11.025016
  H      14.640165    -11.445251      9.469036
  H      16.889286    -11.016759     10.404263
  H      16.717645     -8.769107     11.023119
  H      15.575004    -15.155182     12.882157
  H      16.061729    -13.967227     14.201570
  O      12.960100    -15.253717     11.554177
  H      13.828205    -15.048951     11.178705
  H      12.675237    -14.448235     12.006581
  C      12.785000    -13.909001      5.224001
  C      13.425028    -12.548624      5.494261
  N      14.784374    -12.584618      5.997867
  C      15.183962    -12.983540      7.230890
  N      14.463015    -13.781615      7.992790
  N      16.385984    -12.615360      7.626959
  H      13.453745    -14.682279      4.845952
  H      11.992590    -13.775899      4.489415
  H      12.315706    -14.309295      6.121591
  H      13.469070    -11.992108      4.556160
  H      12.778624    -11.990549      6.184030
  H      15.387340    -11.878532      5.607409
  H      14.854110    -14.099688      8.901503
  H      13.622896    -14.217000      7.664227
  H      16.761610    -12.942186      8.561537
  H      16.796559    -11.776031      7.253974
  C       8.412999    -16.813004     15.233001
  C       9.880157    -17.018642     15.627068
  N      10.482155    -15.862398     16.248643
  C      10.848603    -14.745903     15.559219
  N      10.661963    -14.647954     14.263068
  N      11.354254    -13.710487     16.209096
  H       7.736528    -17.001581     16.066622
  H       8.147545    -17.508779     14.438822
  H       8.255175    -15.799914     14.871121
  H       9.970950    -17.853577     16.323026
  H      10.467305    -17.267608     14.737384
  H      10.440151    -15.792426     17.252055
  H      11.208384    -13.854926     13.738216
  H      10.408466    -15.454902     13.722994
  H      11.985759    -13.005123     15.650570
  H      11.557097    -13.805967     17.189429
  C      13.998001     -9.220000      7.724999
  O      15.188795     -9.898042      8.012419
  C      14.263769     -7.790382      7.249383
  H      13.329681     -9.174595      8.584877
  H      13.495010     -9.783819      6.928295
  H      15.546350     -9.518782      8.847711
  H      14.788876     -7.240937      8.027677
  H      14.888283     -7.796665      6.358592
  H      13.325034     -7.287130      7.027046
  C      14.518001     -6.670000     12.632999
  S      13.469432     -8.081564     13.086740
  H      14.324364     -6.427596     11.588086
  H      15.560858     -6.949322     12.743564
  H      14.255265     -5.839053     13.278300
  H      14.018855     -8.922692     12.219800
  C      20.972000     -6.019000     10.963999
  C      20.051418     -7.037894     11.637545
  C      18.699728     -7.354899     10.928009
  O      17.958057     -8.149735     11.585703
  O      18.441067     -6.867264      9.831101
  H      20.586780     -5.000259     11.007275
  H      21.085703     -6.283325      9.915127
  H      21.954269     -6.034296     11.436670
  H      20.574287     -7.997199     11.695058
  H      19.821147     -6.731595     12.662264
  C      19.312999    -20.521999      7.175001
  C      18.317037    -19.448324      7.524911
  C      17.136134    -19.330306      6.800526
  C      18.544306    -18.540871      8.551050
  C      16.214505    -18.345002      7.088278
  C      17.630017    -17.545412      8.848947
  C      16.449576    -17.437055      8.120850
  O      15.519431    -16.489121      8.357678
  H      19.761228    -20.307815      6.204785
  H      18.828107    -21.495450      7.117256
  H      20.106212    -20.568507      7.917901
  H      16.936157    -20.027280      5.998945
  H      19.455301    -18.609208      9.129564
  H      15.298610    -18.258796      6.523880
  H      17.818960    -16.837204      9.643639
  H      15.742327    -15.934592      9.138163
  C      19.522001    -11.465000      7.842998
  C      19.548402    -10.486197      9.013934
  N      19.536282    -11.206207     10.262188
  C      20.415968    -10.994357     11.264741
  O      21.415297    -10.303007     11.168696
  N      20.128914    -11.715144     12.407432
  H      19.317472    -10.958064      6.899981
  H      18.777477    -12.231832      8.024930
  H      20.488580    -11.959991      7.754194
  H      20.451988     -9.874974      9.003658
  H      18.678895     -9.819516      8.965462
  H      18.781597    -11.866639     10.393832
  H      20.606988    -11.375493     13.226322
  H      19.162718    -11.973653     12.548538
114
Coordinates from ORCA-job 01_xtb_cit_react E -175.325991143890
  C      16.356227    -10.999139     12.460807
  C      15.160096    -11.203696     13.334278
  C      14.039129    -11.727829     12.818657
  C      13.880293    -11.850769     11.381300
  C      14.797143    -11.392020     10.533692
  C      16.030443    -10.668688     10.990965
  C      12.942686    -12.305803     13.656203
  O      12.987226    -12.209127     14.901320
  O      12.059190    -12.947228     13.021001
  O      15.842341     -9.297499     10.740050
  O      17.130513    -12.228932     12.545546
  C      16.483073    -13.402585     12.217945
  C      16.415156    -13.757326     10.752316
  O      17.265471    -13.243984      9.997889
  O      15.530199    -14.569528     10.370533
  C      16.014350    -14.221742     13.153557
  H      17.039454    -10.236354     12.843820
  H      15.272814    -11.102601     14.402928
  H      12.972444    -12.313288     11.024116
  H      14.640541    -11.449011      9.468694
  H      16.895981    -11.010128     10.405725
  H      16.717275     -8.773839     11.035715
  H      15.573826    -15.165165     12.884253
  H      16.067903    -13.975984     14.200969
  O      12.963491    -15.257385     11.558473
  H      13.831593    -15.053772     11.181448
  H      12.683199    -14.450598     12.012454
  C      12.785000    -13.909001      5.224001
  C      13.425182    -12.548813      5.492380
  N      14.784075    -12.582749      5.995868
  C      15.186057    -12.984391      7.226936
  N      14.464431    -13.789045      7.983634
  N      16.386014    -12.608709      7.625619
  H      13.453745    -14.682279      4.845952
  H      11.992986    -13.775794      4.489098
  H      12.315000    -14.309015      6.121051
  H      13.468254    -11.993513      4.553369
  H      12.778616    -11.990331      6.181581
  H      15.390813    -11.879437      5.601721
  H      14.850730    -14.105267      8.895080
  H      13.623611    -14.224196      7.648743
  H      16.759111    -12.937083      8.559886
  H      16.783323    -11.760990      7.257648
  C       8.412999    -16.813004     15.233001
  C       9.881394    -17.023703     15.624344
  N      10.485022    -15.868750     16.249267
  C      10.851974    -14.750909     15.563042
  N      10.660841    -14.648310     14.268406
  N      11.365213    -13.719937     16.214133
  H       7.736528    -17.001581     16.066623
  H       8.143504    -17.502283     14.436204
  H       8.258323    -15.798360     14.876689
  H       9.973798    -17.862080     16.316823
  H      10.466157    -17.269662     14.731646
  H      10.455252    -15.805172     17.253114
  H      11.204646    -13.856371     13.742147
  H      10.397393    -15.452241     13.726610
  H      11.992252    -13.011322     15.654771
  H      11.572381    -13.818593     17.193302
  C      13.998001     -9.220000      7.724999
  O      15.189866     -9.897118      8.013680
  C      14.268180     -7.794050      7.246186
  H      13.329681     -9.174595      8.584877
  H      13.495321     -9.784972      6.929877
  H      15.549163     -9.518898      8.848413
  H      14.790577     -7.243321      8.024966
  H      14.895858     -7.808036      6.357413
  H      13.333688     -7.286950      7.017549
  C      14.518001     -6.670000     12.632999
  S      13.501657     -8.114917     13.059885
  H      14.324364     -6.427596     11.588086
  H      15.566447     -6.931833     12.746440
  H      14.237479     -5.849444     13.283199
  H      14.081459     -8.928084     12.183868
  C      20.972000     -6.019000     10.963999
  C      20.052083     -7.038174     11.636457
  C      18.704840     -7.364253     10.925366
  O      17.962152     -8.155430     11.588062
  O      18.449254     -6.890267      9.823006
  H      20.586780     -5.000259     11.007275
  H      21.085060     -6.282298      9.914294
  H      21.955076     -6.034152     11.435112
  H      20.579142     -7.994560     11.696022
  H      19.819307     -6.732763     12.659556
  C      19.312999    -20.521999      7.175001
  C      18.318106    -19.447839      7.524246
  C      17.142379    -19.321886      6.792522
  C      18.542491    -18.544543      8.554238
  C      16.222956    -18.334175      7.077922
  C      17.630418    -17.546839      8.850370
  C      16.454532    -17.431207      8.115619
  O      15.527700    -16.479600      8.349977
  H      19.761228    -20.307815      6.204785
  H      18.827989    -21.495523      7.118094
  H      20.106279    -20.568045      7.918063
  H      16.947171    -20.012805      5.983286
  H      19.450875    -18.616857      9.136130
  H      15.310290    -18.242598      6.509390
  H      17.819916    -16.842873      9.648610
  H      15.749543    -15.933199      9.136249
  C      19.522001    -11.465000      7.842998
  C      19.550294    -10.485082      9.013072
  N      19.535643    -11.205305     10.261212
  C      20.416978    -10.999204     11.264484
  O      21.416628    -10.306840     11.170522
  N      20.128026    -11.723783     12.405335
  H      19.317472    -10.958064      6.899981
  H      18.776845    -12.230913      8.025534
  H      20.489760    -11.960024      7.755594
  H      20.457678     -9.878729      9.002138
  H      18.683232     -9.814581      8.964594
  H      18.777197    -11.859841     10.395615
  H      20.607544    -11.388283     13.225438
  H      19.160225    -11.976925     12.547015
114
Coordinates from ORCA-job 01_xtb_cit_react E -175.326314128430
  C      16.374045    -11.017054     12.467274
  C      15.182165    -11.227802     13.345840
  C      14.057041    -11.753683     12.827645
  C      13.899416    -11.870597     11.390643
  C      14.809799    -11.401211     10.541400
  C      16.041938    -10.673190     11.000357
  C      12.959904    -12.333025     13.661797
  O      13.006496    -12.242163     14.907722
  O      12.072298    -12.968345     13.026362
  O      15.842720     -9.299625     10.765371
  O      17.147034    -12.246803     12.547693
  C      16.495206    -13.417921     12.218874
  C      16.416775    -13.759361     10.750716
  O      17.261917    -13.235434      9.997518
  O      15.530098    -14.568463     10.364652
  C      16.030740    -14.240608     13.152524
  H      17.057245    -10.256414     12.858819
  H      15.297408    -11.125092     14.417299
  H      12.992706    -12.336674     11.033371
  H      14.642348    -11.451463      9.477072
  H      16.909127    -11.001234     10.410462
  H      16.720825     -8.770502     11.051535
  H      15.585488    -15.181500     12.882373
  H      16.095266    -13.997025     14.200123
  O      12.982109    -15.268084     11.564543
  H      13.851089    -15.063142     11.186020
  H      12.705783    -14.459849     12.018843
  C      12.785000    -13.909001      5.224001
  C      13.425617    -12.548330      5.485797
  N      14.782213    -12.578632      5.995758
  C      15.187479    -12.982390      7.225332
  N      14.468911    -13.790295      7.980240
  N      16.383610    -12.596482      7.624880
  H      13.453745    -14.682279      4.845952
  H      11.991571    -13.777555      4.490511
  H      12.316916    -14.306864      6.122613
  H      13.473457    -11.999309      4.543441
  H      12.775223    -11.985785      6.168260
  H      15.394137    -11.882965      5.595396
  H      14.853341    -14.106299      8.892525
  H      13.633263    -14.227595      7.641217
  H      16.755781    -12.925108      8.559386
  H      16.763550    -11.737400      7.258514
  C       8.412999    -16.813004     15.233001
  C       9.878771    -17.036468     15.621867
  N      10.486380    -15.887282     16.254166
  C      10.861792    -14.769955     15.571491
  N      10.670114    -14.662785     14.276919
  N      11.385403    -13.746515     16.225507
  H       7.736528    -17.001581     16.066622
  H       8.137590    -17.491068     14.431154
  H       8.266499    -15.796199     14.886461
  H       9.968026    -17.880833     16.307347
  H      10.462327    -17.278010     14.726514
  H      10.469364    -15.832027     17.258273
  H      11.215215    -13.873019     13.747491
  H      10.388349    -15.460675     13.734383
  H      12.012981    -13.037335     15.663482
  H      11.593737    -13.850077     17.204384
  C      13.998001     -9.220000      7.724999
  O      15.194735     -9.891079      8.020443
  C      14.270328     -7.795423      7.239473
  H      13.329681     -9.174595      8.584877
  H      13.500304     -9.793748      6.933101
  H      15.552745     -9.513336      8.854210
  H      14.785993     -7.241579      8.020536
  H      14.904992     -7.816705      6.356351
  H      13.341703     -7.285269      6.996787
  C      14.518001     -6.670000     12.632999
  S      13.550827     -8.160323     13.033921
  H      14.324364     -6.427596     11.588086
  H      15.576101     -6.897962     12.756559
  H      14.204243     -5.865775     13.287035
  H      14.169580     -8.924383     12.141597
  C      20.972000     -6.019000     10.963999
  C      20.051393     -7.033637     11.641259
  C      18.708568     -7.366874     10.922809
  O      17.967656     -8.152512     11.589661
  O      18.458850     -6.902638      9.814643
  H      20.586780     -5.000259     11.007275
  H      21.079423     -6.283283      9.914092
  H      21.957048     -6.035488     11.430002
  H      20.584850     -7.988168     11.709923
  H      19.810076     -6.720520     12.661369
  C      19.312999    -20.521999      7.175001
  C      18.319776    -19.446485      7.521907
  C      17.154032    -19.303523      6.775615
  C      18.538874    -18.553299      8.561335
  C      16.239814    -18.309896      7.057474
  C      17.631170    -17.551372      8.855158
  C      16.465732    -17.417966      8.106546
  O      15.546244    -16.458004      8.337043
  H      19.761228    -20.307815      6.204785
  H      18.826016    -21.494429      7.116868
  H      20.105238    -20.570194      7.918484
  H      16.965393    -19.982911      5.953202
  H      19.439959    -18.635952      9.153137
  H      15.334925    -18.204458      6.477583
  H      17.822810    -16.858779      9.662340
  H      15.769322    -15.925331      9.132523
  C      19.522001    -11.465000      7.842998
  C      19.566700    -10.483095      9.010911
  N      19.547247    -11.203995     10.257773
  C      20.430262    -11.008146     11.261005
  O      21.430744    -10.316947     11.171791
  N      20.141787    -11.747122     12.394254
  H      19.317472    -10.958064      6.899981
  H      18.770466    -12.222931      8.030323
  H      20.485170    -11.967524      7.754006
  H      20.483659     -9.891991      8.995685
  H      18.712775     -9.795924      8.968149
  H      18.779783    -11.846792     10.398188
  H      20.621271    -11.420866     13.219152
  H      19.171629    -11.990902     12.536653
114
Coordinates from ORCA-job 01_xtb_cit_react E -175.326613497670
  C      16.383677    -11.025510     12.475159
  C      15.191545    -11.236330     13.348987
  C      14.067922    -11.756647     12.836500
  C      13.908955    -11.873970     11.401493
  C      14.817319    -11.400597     10.551160
  C      16.049544    -10.670889     11.012336
  C      12.973836    -12.333483     13.676502
  O      13.022175    -12.247261     14.922440
  O      12.081434    -12.966283     13.040939
  O      15.842233     -9.298977     10.792833
  O      17.158969    -12.253101     12.559231
  C      16.501716    -13.421819     12.225429
  C      16.419015    -13.758662     10.756903
  O      17.259006    -13.230906     10.001984
  O      15.529898    -14.565321     10.370472
  C      16.034544    -14.244945     13.156953
  H      17.061296    -10.263866     12.878422
  H      15.311899    -11.132647     14.418744
  H      13.003917    -12.342076     11.046056
  H      14.645999    -11.449048      9.488823
  H      16.918375    -10.989170     10.419397
  H      16.721103     -8.768035     11.073708
  H      15.583344    -15.181484     12.883777
  H      16.103532    -14.003217     14.204737
  O      12.991231    -15.261056     11.579817
  H      13.861366    -15.061217     11.201075
  H      12.718639    -14.450694     12.034653
  C      12.785000    -13.909001      5.224001
  C      13.427251    -12.549645      5.484844
  N      14.781619    -12.581169      6.001296
  C      15.186863    -12.984262      7.231538
  N      14.471877    -13.795371      7.985276
  N      16.381159    -12.592487      7.630681
  H      13.453745    -14.682279      4.845952
  H      11.991450    -13.777346      4.490891
  H      12.317684    -14.306143      6.123188
  H      13.480842    -12.001982      4.542270
  H      12.774454    -11.985986      6.163929
  H      15.396086    -11.891942      5.598354
  H      14.855034    -14.109287      8.899738
  H      13.637480    -14.232878      7.646075
  H      16.753190    -12.919448      8.564935
  H      16.750075    -11.726503      7.269440
  C       8.412999    -16.813004     15.233001
  C       9.877080    -17.033450     15.626572
  N      10.488130    -15.889681     16.263118
  C      10.871731    -14.770325     15.585704
  N      10.677591    -14.656345     14.293347
  N      11.402507    -13.751545     16.242279
  H       7.736528    -17.001581     16.066623
  H       8.140510    -17.495266     14.429819
  H       8.262871    -15.794634     14.883025
  H       9.964485    -17.878902     16.309834
  H      10.461293    -17.272936     14.732526
  H      10.478430    -15.840540     17.269222
  H      11.222038    -13.867344     13.761893
  H      10.383430    -15.449715     13.750802
  H      12.028693    -13.039804     15.678755
  H      11.613999    -13.862520     17.219518
  C      13.998001     -9.220000      7.724999
  O      15.197438     -9.887267      8.021236
  C      14.270647     -7.796825      7.237303
  H      13.329681     -9.174595      8.584877
  H      13.501224     -9.798567      6.936607
  H      15.556111     -9.507315      8.850118
  H      14.786720     -7.242783      8.018181
  H      14.905919     -7.822873      6.354747
  H      13.343748     -7.283336      6.991824
  C      14.518001     -6.670000     12.632999
  S      13.599756     -8.202148     13.003467
  H      14.324364     -6.427596     11.588086
  H      15.581151     -6.862734     12.766696
  H      14.174677     -5.887750     13.297291
  H      14.253391     -8.926100     12.101812
  C      20.972000     -6.019000     10.963999
  C      20.050052     -7.031020     11.648393
  C      18.709336     -7.376002     10.928052
  O      17.966004     -8.153523     11.601413
  O      18.465840     -6.924087      9.812878
  H      20.586780     -5.000259     11.007275
  H      21.075173     -6.285845      9.915135
  H      21.957438     -6.036184     11.426782
  H      20.585960     -7.982440     11.724753
  H      19.802679     -6.709516     12.663964
  C      19.312999    -20.521999      7.175001
  C      18.321737    -19.446578      7.524128
  C      17.158068    -19.298968      6.777349
  C      18.540657    -18.558824      8.568378
  C      16.246487    -18.304314      7.060554
  C      17.634215    -17.556178      8.863916
  C      16.472372    -17.415417      8.112205
  O      15.557167    -16.451025      8.341204
  H      19.761228    -20.307815      6.204785
  H      18.823496    -21.492960      7.113853
  H      20.105170    -20.574912      7.917385
  H      16.967467    -19.976435      5.954961
  H      19.439311    -18.645448      9.163088
  H      15.344282    -18.195554      6.478291
  H      17.828159    -16.868970      9.675153
  H      15.780187    -15.925276      9.141414
  C      19.522001    -11.465000      7.842998
  C      19.568145    -10.481856      9.009579
  N      19.549799    -11.201059     10.257818
  C      20.437674    -11.009032     11.256506
  O      21.439993    -10.322972     11.164772
  N      20.155705    -11.755277     12.387104
  H      19.317472    -10.958064      6.899981
  H      18.770752    -12.221683      8.033064
  H      20.483936    -11.968428      7.754000
  H      20.484567     -9.890437      8.993168
  H      18.719450     -9.790404      8.963646
  H      18.777189    -11.836111     10.404292
  H      20.638982    -11.434415     13.211502
  H      19.185216    -11.992734     12.535374
114
Coordinates from ORCA-job 01_xtb_cit_react E -175.326913029100
  C      16.399989    -11.042041     12.479744
  C      15.202949    -11.254572     13.363826
  C      14.078300    -11.767994     12.848417
  C      13.919950    -11.877842     11.412155
  C      14.826374    -11.400191     10.561777
  C      16.059556    -10.675073     11.024515
  C      12.986581    -12.348381     13.686147
  O      13.038248    -12.269802     14.931548
  O      12.093693    -12.977780     13.049759
  O      15.845474     -9.300105     10.824051
  O      17.168414    -12.271119     12.562297
  C      16.509389    -13.436344     12.223536
  C      16.426823    -13.762903     10.754327
  O      17.262647    -13.229591      9.998359
  O      15.536356    -14.566485     10.366614
  C      16.041357    -14.264236     13.150670
  H      17.077160    -10.279849     12.883804
  H      15.326953    -11.157400     14.434365
  H      13.015317    -12.346501     11.054573
  H      14.652405    -11.444791      9.500251
  H      16.925920    -10.983540     10.422997
  H      16.722589     -8.764944     11.105065
  H      15.587004    -15.196672     12.870117
  H      16.106792    -14.027771     14.200838
  O      13.005759    -15.265336     11.585092
  H      13.874897    -15.067408     11.204028
  H      12.734474    -14.453927     12.040177
  C      12.785000    -13.909001      5.224001
  C      13.425878    -12.548416      5.481869
  N      14.778573    -12.578289      6.002682
  C      15.183066    -12.979040      7.233589
  N      14.471501    -13.797910      7.983211
  N      16.376082    -12.582549      7.633818
  H      13.453745    -14.682279      4.845952
  H      11.989339    -13.779457      4.492732
  H      12.321010    -14.304259      6.126048
  H      13.483285    -12.002532      4.538347
  H      12.770761    -11.983956      6.158647
  H      15.390889    -11.880960      5.603099
  H      14.856195    -14.110300      8.898269
  H      13.640887    -14.246114      7.640322
  H      16.750997    -12.912650      8.566184
  H      16.740306    -11.714219      7.280280
  C       8.412999    -16.813004     15.233001
  C       9.875769    -17.042058     15.623443
  N      10.493003    -15.903897     16.265743
  C      10.883308    -14.784213     15.591846
  N      10.684667    -14.663929     14.300325
  N      11.421297    -13.772367     16.250905
  H       7.736528    -17.001581     16.066622
  H       8.137196    -17.489956     14.427190
  H       8.266944    -15.792389     14.888329
  H       9.959937    -17.892535     16.302239
  H      10.460430    -17.278873     14.728812
  H      10.490431    -15.862347     17.271801
  H      11.231100    -13.874280     13.769347
  H      10.382069    -15.451416     13.757256
  H      12.046250    -13.059249     15.687782
  H      11.634792    -13.890550     17.226332
  C      13.998001     -9.220000      7.724999
  O      15.201224     -9.881232      8.019124
  C      14.259614     -7.797440      7.232715
  H      13.329681     -9.174595      8.584877
  H      13.503123     -9.806332      6.940752
  H      15.560894     -9.501685      8.847963
  H      14.773041     -7.237911      8.010646
  H      14.894722     -7.823567      6.349595
  H      13.328981     -7.291296      6.986890
  C      14.518001     -6.670000     12.632999
  S      13.643549     -8.234166     12.985255
  H      14.324364     -6.427596     11.588086
  H      15.582820     -6.831114     12.777523
  H      14.139471     -5.905833     13.299736
  H      14.330358     -8.922905     12.079105
  C      20.972000     -6.019000     10.963999
  C      20.053177     -7.030603     11.653702
  C      18.708663     -7.376029     10.940289
  O      17.965634     -8.141520     11.626292
  O      18.465971     -6.940322      9.819944
  H      20.586780     -5.000259     11.007275
  H      21.076258     -6.288959      9.915044
  H      21.957592     -6.035345     11.429008
  H      20.588678     -7.982030     11.725954
  H      19.809854     -6.708158     12.669126
  C      19.312999    -20.521999      7.175001
  C      18.325234    -19.443201      7.523598
  C      17.167097    -19.285355      6.769546
  C      18.542264    -18.564161      8.575383
  C      16.260179    -18.285853      7.051403
  C      17.639858    -17.557281      8.869383
  C      16.485904    -17.403093      8.108308
  O      15.576123    -16.433485      8.332581
  H      19.761228    -20.307815      6.204785
  H      18.818280    -21.490386      7.109839
  H      20.104359    -20.581384      7.917500
  H      16.974777    -19.959696      5.946248
  H      19.434745    -18.660861      9.178633
  H      15.363813    -18.166609      6.460989
  H      17.833863    -16.877687      9.687207
  H      15.795114    -15.910977      9.135351
  C      19.522001    -11.465000      7.842998
  C      19.577454    -10.483116      9.008972
  N      19.557642    -11.202500     10.256975
  C      20.447772    -11.013320     11.254275
  O      21.453360    -10.331813     11.164279
  N      20.164513    -11.763578     12.384293
  H      19.317472    -10.958064      6.899981
  H      18.766063    -12.217331      8.034768
  H      20.479725    -11.976008      7.750374
  H      20.498276     -9.896901      8.990244
  H      18.735916     -9.781389      8.962973
  H      18.779704    -11.830226     10.406179
  H      20.645204    -11.445034     13.211143
  H      19.191963    -11.998526     12.532596
114
Coordinates from ORCA-job 01_xtb_cit_react E -175.327179493860
  C      16.408725    -11.050414     12.486454
  C      15.209273    -11.254883     13.361958
  C      14.084293    -11.771481     12.843234
  C      13.927484    -11.882944     11.407559
  C      14.835640    -11.403151     10.561616
  C      16.067509    -10.680997     11.028342
  C      12.996425    -12.355825     13.681838
  O      13.049753    -12.278703     14.926509
  O      12.107275    -12.988190     13.046352
  O      15.852022     -9.304342     10.839206
  O      17.172315    -12.282140     12.565380
  C      16.508997    -13.443509     12.218233
  C      16.437113    -13.772078     10.749897
  O      17.271442    -13.239305      9.994309
  O      15.546276    -14.575548     10.360509
  C      16.024722    -14.267396     13.141070
  H      17.084866    -10.286564     12.886618
  H      15.338415    -11.156334     14.427558
  H      13.024758    -12.354419     11.048001
  H      14.664030    -11.448945      9.500325
  H      16.931978    -10.986451     10.419341
  H      16.733535     -8.766143     11.121362
  H      15.564054    -15.195345     12.854019
  H      16.081985    -14.032717     14.189564
  O      13.018084    -15.272077     11.578268
  H      13.886954    -15.074393     11.197233
  H      12.745904    -14.461707     12.032934
  C      12.785000    -13.909001      5.224001
  C      13.426056    -12.547914      5.483206
  N      14.779723    -12.580435      6.002290
  C      15.181619    -12.979396      7.234129
  N      14.470688    -13.799043      7.982674
  N      16.376000    -12.588168      7.637346
  H      13.453745    -14.682279      4.845952
  H      11.988118    -13.779883      4.493966
  H      12.323116    -14.303085      6.127994
  H      13.482989    -11.998867      4.541603
  H      12.772880    -11.985562      6.163800
  H      15.389085    -11.880495      5.605173
  H      14.858237    -14.117389      8.895093
  H      13.644986    -14.253537      7.638889
  H      16.754670    -12.919170      8.566940
  H      16.743492    -11.720042      7.291070
  C       8.412999    -16.813004     15.233001
  C       9.876270    -17.047987     15.619316
  N      10.500548    -15.913322     16.262214
  C      10.900564    -14.798261     15.587065
  N      10.706514    -14.680597     14.294700
  N      11.439125    -13.787977     16.245896
  H       7.736528    -17.001581     16.066623
  H       8.134316    -17.484400     14.426577
  H       8.270482    -15.791100     14.892946
  H       9.955995    -17.900473     16.297861
  H      10.462706    -17.286744     14.725888
  H      10.491697    -15.871665     17.267011
  H      11.250372    -13.888223     13.763052
  H      10.399040    -15.465686     13.753030
  H      12.061535    -13.073306     15.683104
  H      11.647132    -13.904944     17.222129
  C      13.998001     -9.220000      7.724999
  O      15.201423     -9.881664      8.010810
  C      14.252429     -7.794831      7.236476
  H      13.329681     -9.174595      8.584877
  H      13.502247     -9.807343      6.940853
  H      15.566138     -9.499719      8.836123
  H      14.773266     -7.238676      8.012800
  H      14.881131     -7.814928      6.348332
  H      13.317118     -7.290236      7.003023
  C      14.518001     -6.670000     12.632999
  S      13.664351     -8.240935     12.992074
  H      14.324364     -6.427596     11.588086
  H      15.580085     -6.813869     12.788118
  H      14.124187     -5.911219     13.299259
  H      14.374351     -8.911973     12.085078
  C      20.972000     -6.019000     10.963999
  C      20.058063     -7.033761     11.657781
  C      18.710885     -7.383281     10.947817
  O      17.970304     -8.145009     11.640553
  O      18.466193     -6.952171      9.825513
  H      20.586780     -5.000259     11.007275
  H      21.078608     -6.292422      9.916191
  H      21.956528     -6.033015     11.432301
  H      20.592618     -7.985181     11.731329
  H      19.814328     -6.707026     12.673319
  C      19.312999    -20.521999      7.175001
  C      18.326278    -19.443950      7.525826
  C      17.164165    -19.293645      6.778019
  C      18.546927    -18.563026      8.574533
  C      16.256550    -18.295971      7.061397
  C      17.642710    -17.558252      8.870917
  C      16.486120    -17.409140      8.113778
  O      15.574366    -16.442896      8.337820
  H      19.761228    -20.307815      6.204785
  H      18.816460    -21.489394      7.107276
  H      20.104472    -20.584652      7.916953
  H      16.967092    -19.972570      5.960685
  H      19.442005    -18.656384      9.174124
  H      15.357452    -18.182544      6.475301
  H      17.837731    -16.878046      9.688605
  H      15.792563    -15.914284      9.136813
  C      19.522001    -11.465000      7.842998
  C      19.568120    -10.484064      9.011561
  N      19.553250    -11.203180     10.260010
  C      20.447569    -11.009961     11.253227
  O      21.452886    -10.330235     11.159226
  N      20.167858    -11.756286     12.388166
  H      19.317472    -10.958064      6.899981
  H      18.768372    -12.222012      8.030852
  H      20.481715    -11.972971      7.750323
  H      20.483173     -9.886955      8.995944
  H      18.721275     -9.788065      8.962594
  H      18.778892    -11.834333     10.410792
  H      20.642871    -11.430689     13.214827
  H      19.196040    -11.995131     12.536948
114
Coordinates from ORCA-job 01_xtb_cit_react E -175.327263602900
  C      16.429351    -11.039191     12.489556
  C      15.238814    -11.239010     13.376101
  C      14.109087    -11.761169     12.862074
  C      13.944841    -11.871102     11.425241
  C      14.846365    -11.393255     10.576912
  C      16.077861    -10.671882     11.039208
  C      13.017645    -12.345154     13.702611
  O      13.070278    -12.270028     14.949280
  O      12.125013    -12.974704     13.066610
  O      15.856991     -9.291357     10.861845
  O      17.186285    -12.274295     12.570305
  C      16.521069    -13.436183     12.231298
  C      16.445324    -13.762576     10.759859
  O      17.275374    -13.227218      9.999128
  O      15.553013    -14.565274     10.371671
  C      16.037124    -14.257277     13.156327
  H      17.112437    -10.277795     12.876388
  H      15.372777    -11.141990     14.441537
  H      13.040405    -12.338844     11.065729
  H      14.672245    -11.437493      9.515725
  H      16.939938    -10.968257     10.425502
  H      16.742145     -8.754149     11.138935
  H      15.575245    -15.185781     12.870472
  H      16.093644    -14.022029     14.203509
  O      13.030859    -15.257372     11.600927
  H      13.899104    -15.065177     11.218702
  H      12.763104    -14.444263     12.052526
  C      12.785000    -13.909001      5.224001
  C      13.424675    -12.546518      5.484447
  N      14.777944    -12.574130      6.006583
  C      15.177970    -12.968618      7.241222
  N      14.474224    -13.792795      7.990833
  N      16.369461    -12.568611      7.644027
  H      13.453745    -14.682279      4.845952
  H      11.988698    -13.780099      4.493220
  H      12.321868    -14.302679      6.127557
  H      13.481487    -11.999624      4.541722
  H      12.769758    -11.982987      6.162113
  H      15.384353    -11.872504      5.611236
  H      14.861508    -14.109795      8.902755
  H      13.652470    -14.252213      7.649480
  H      16.752762    -12.901966      8.573598
  H      16.732032    -11.693065      7.307848
  C       8.412999    -16.813004     15.233001
  C       9.876415    -17.043961     15.623816
  N      10.500627    -15.907043     16.267106
  C      10.906306    -14.789812     15.597521
  N      10.713082    -14.663754     14.306404
  N      11.451684    -13.784793     16.262420
  H       7.736528    -17.001581     16.066622
  H       8.137350    -17.487144     14.427326
  H       8.269251    -15.793066     14.892140
  H       9.954560    -17.892345     16.308091
  H      10.462417    -17.289104     14.732481
  H      10.496608    -15.870572     17.271243
  H      11.260302    -13.870602     13.778094
  H      10.400229    -15.444695     13.757669
  H      12.075443    -13.067455     15.703635
  H      11.661905    -13.907570     17.238126
  C      13.998001     -9.220000      7.724999
  O      15.201119     -9.880738      8.012766
  C      14.248717     -7.793849      7.232815
  H      13.329681     -9.174595      8.584877
  H      13.503822     -9.809413      6.940771
  H      15.567825     -9.494058      8.833134
  H      14.768311     -7.234364      8.008304
  H      14.877941     -7.808544      6.345438
  H      13.310197     -7.295892      7.000416
  C      14.518001     -6.670000     12.632999
  S      13.737703     -8.286078     12.958369
  H      14.324364     -6.427596     11.588086
  H      15.587000     -6.762651     12.789348
  H      14.074432     -5.940929     13.302782
  H      14.484157     -8.905280     12.042146
  C      20.972000     -6.019000     10.963999
  C      20.066689     -7.037021     11.661444
  C      18.722154     -7.395032     10.955258
  O      17.971728     -8.145421     11.653447
  O      18.481142     -6.979371      9.825874
  H      20.586780     -5.000259     11.007275
  H      21.073485     -6.294402      9.916730
  H      21.958542     -6.029492     11.427112
  H      20.603733     -7.986445     11.737363
  H      19.823967     -6.709133     12.676654
  C      19.312999    -20.521999      7.175001
  C      18.330909    -19.439414      7.530290
  C      17.175620    -19.272429      6.774458
  C      18.552112    -18.567595      8.586084
  C      16.275147    -18.267640      7.059237
  C      17.654760    -17.556262      8.885263
  C      16.504728    -17.391407      8.121094
  O      15.598435    -16.419173      8.344396
  H      19.761228    -20.307815      6.204785
  H      18.813251    -21.487269      7.106836
  H      20.105039    -20.588517      7.915768
  H      16.981486    -19.939045      5.944352
  H      19.443964    -18.671863      9.187384
  H      15.379440    -18.142563      6.470587
  H      17.852322    -16.885106      9.710558
  H      15.812240    -15.893699      9.148310
  C      19.522001    -11.465000      7.842998
  C      19.575564    -10.479003      9.006520
  N      19.559661    -11.191474     10.258726
  C      20.461174    -11.000757     11.246120
  O      21.470106    -10.327815     11.143262
  N      20.181433    -11.733098     12.388125
  H      19.317472    -10.958064      6.899981
  H      18.764078    -12.216457      8.036298
  H      20.477526    -11.978163      7.749038
  H      20.491886     -9.885512      8.988198
  H      18.728961     -9.783732      8.954741
  H      18.779024    -11.815497     10.414466
  H      20.659929    -11.399353     13.208590
  H      19.211003    -11.971182     12.539874
114
Coordinates from ORCA-job 01_xtb_cit_react E -175.327448441070
  C      16.424863    -11.052124     12.492142
  C      15.223099    -11.257489     13.375967
  C      14.105605    -11.784962     12.857914
  C      13.944772    -11.891464     11.420378
  C      14.847610    -11.406773     10.573950
  C      16.078061    -10.686311     11.037099
  C      13.016174    -12.374387     13.695073
  O      13.068424    -12.293535     14.942673
  O      12.129151    -13.008916     13.059128
  O      15.865303     -9.306883     10.854311
  O      17.179994    -12.291296     12.560571
  C      16.515750    -13.450915     12.216358
  C      16.446990    -13.779888     10.747279
  O      17.281088    -13.246575      9.990860
  O      15.551947    -14.579260     10.356087
  C      16.017222    -14.264906     13.140662
  H      17.110535    -10.295169     12.879139
  H      15.349898    -11.155084     14.439798
  H      13.041068    -12.360852     11.059407
  H      14.676326    -11.451269      9.510939
  H      16.937895    -10.987556     10.419456
  H      16.756326     -8.766632     11.131010
  H      15.555843    -15.192972     12.853929
  H      16.057357    -14.022391     14.188653
  O      13.028667    -15.279087     11.568821
  H      13.897712    -15.079328     11.190157
  H      12.757530    -14.472596     12.025613
  C      12.785000    -13.909001      5.224001
  C      13.422430    -12.545288      5.487505
  N      14.778853    -12.574146      6.001209
  C      15.176663    -12.971245      7.235009
  N      14.467567    -13.791583      7.984965
  N      16.368666    -12.581042      7.640885
  H      13.453745    -14.682279      4.845952
  H      11.989217    -13.780458      4.492497
  H      12.320563    -14.303944      6.126399
  H      13.471685    -11.994049      4.547085
  H      12.770809    -11.985372      6.171216
  H      15.386074    -11.873670      5.603309
  H      14.854789    -14.116585      8.892818
  H      13.651292    -14.254814      7.639983
  H      16.754960    -12.917113      8.568320
  H      16.743881    -11.710684      7.300003
  C       8.412999    -16.813004     15.233001
  C       9.870156    -17.070610     15.624372
  N      10.504467    -15.941632     16.265489
  C      10.914012    -14.828454     15.591525
  N      10.731369    -14.712287     14.296870
  N      11.457451    -13.819803     16.254821
  H       7.736528    -17.001581     16.066623
  H       8.127279    -17.480891     14.421589
  H       8.284173    -15.788673     14.899372
  H       9.933508    -17.916261     16.311627
  H      10.449892    -17.328800     14.734265
  H      10.482560    -15.893170     17.270019
  H      11.274333    -13.916475     13.768247
  H      10.418463    -15.495768     13.747138
  H      12.079124    -13.101542     15.697734
  H      11.662178    -13.935338     17.233677
  C      13.998001     -9.220000      7.724999
  O      15.197009     -9.889626      8.013091
  C      14.255185     -7.789956      7.239866
  H      13.329681     -9.174595      8.584877
  H      13.505456     -9.802380      6.934440
  H      15.566537     -9.508186      8.832838
  H      14.778120     -7.238636      8.017259
  H      14.882041     -7.793563      6.351558
  H      13.317792     -7.290931      7.014902
  C      14.518001     -6.670000     12.632999
  S      13.696515     -8.260007     12.962818
  H      14.324364     -6.427596     11.588086
  H      15.582017     -6.782275     12.794542
  H      14.090788     -5.923009     13.295027
  H      14.447461     -8.904247     12.062995
  C      20.972000     -6.019000     10.963999
  C      20.068980     -7.043774     11.654905
  C      18.726269     -7.402954     10.947757
  O      17.976838     -8.160098     11.645268
  O      18.478287     -6.983494      9.821857
  H      20.586780     -5.000259     11.007275
  H      21.075855     -6.291271      9.916267
  H      21.957821     -6.027861     11.428605
  H      20.605759     -7.993409     11.728773
  H      19.827285     -6.720892     12.671787
  C      19.312999    -20.521999      7.175001
  C      18.326147    -19.444248      7.526732
  C      17.165977    -19.292012      6.774989
  C      18.547323    -18.563553      8.575038
  C      16.258959    -18.293585      7.059423
  C      17.643656    -17.558428      8.874177
  C      16.487011    -17.410294      8.116149
  O      15.570644    -16.449198      8.341721
  H      19.761228    -20.307815      6.204785
  H      18.819656    -21.490393      7.110764
  H      20.104765    -20.580694      7.916620
  H      16.973797    -19.964645      5.948319
  H      19.444157    -18.657292      9.170903
  H      15.358221    -18.179572      6.475478
  H      17.841662    -16.881210      9.694388
  H      15.785494    -15.912111      9.137766
  C      19.522001    -11.465000      7.842998
  C      19.555205    -10.482728      9.008768
  N      19.547259    -11.197763     10.259230
  C      20.453600    -11.005552     11.241172
  O      21.457965    -10.326165     11.132101
  N      20.182549    -11.738749     12.382406
  H      19.317472    -10.958064      6.899981
  H      18.772221    -12.225248      8.027055
  H      20.483181    -11.964892      7.754118
  H      20.460890     -9.875138      8.995772
  H      18.695276     -9.804117      8.958372
  H      18.775979    -11.834396     10.415059
  H      20.659037    -11.398490     13.201764
  H      19.214449    -11.984306     12.532559
114
Coordinates from ORCA-job 01_xtb_cit_react E -175.327612979260
  C      16.426848    -11.060502     12.491209
  C      15.228500    -11.267201     13.366810
  C      14.108185    -11.793237     12.852526
  C      13.944956    -11.898997     11.415894
  C      14.850124    -11.411859     10.568861
  C      16.081795    -10.689208     11.034731
  C      13.022338    -12.382852     13.693407
  O      13.082513    -12.309758     14.938452
  O      12.131145    -13.013748     13.059261
  O      15.865596     -9.311571     10.857104
  O      17.182439    -12.299629     12.560049
  C      16.515156    -13.456940     12.211953
  C      16.446527    -13.784570     10.742856
  O      17.282071    -13.250565      9.988889
  O      15.550995    -14.582741     10.350450
  C      16.014027    -14.271141     13.135262
  H      17.112881    -10.305682     12.887079
  H      15.359949    -11.162132     14.431402
  H      13.041103    -12.367824     11.056768
  H      14.677356    -11.453757      9.506272
  H      16.941516    -10.986622     10.414988
  H      16.756836     -8.768612     11.134414
  H      15.550959    -15.198352     12.849113
  H      16.057761    -14.027538     14.183293
  O      13.029135    -15.284459     11.562786
  H      13.898662    -15.083278     11.183530
  H      12.757531    -14.476394     12.020895
  C      12.785000    -13.909001      5.224001
  C      13.422251    -12.546140      5.485955
  N      14.778118    -12.575240      5.999900
  C      15.177057    -12.974818      7.232158
  N      14.464600    -13.793030      7.979567
  N      16.368720    -12.582772      7.639231
  H      13.453745    -14.682279      4.845952
  H      11.989288    -13.780472      4.492008
  H      12.319874    -14.304593      6.125952
  H      13.471915    -11.995776      4.544772
  H      12.769617    -11.986098      6.168570
  H      15.388268    -11.876823      5.600274
  H      14.851956    -14.118614      8.888015
  H      13.649738    -14.259495      7.628525
  H      16.754540    -12.918772      8.565413
  H      16.740227    -11.711550      7.296530
  C       8.412999    -16.813004     15.233001
  C       9.873649    -17.076269     15.616884
  N      10.514224    -15.954304     16.261393
  C      10.926228    -14.841665     15.589324
  N      10.738636    -14.719868     14.297628
  N      11.477305    -13.839330     16.251199
  H       7.736528    -17.001581     16.066622
  H       8.121686    -17.475473     14.420925
  H       8.285660    -15.784835     14.901470
  H       9.935796    -17.929391     16.292727
  H      10.454710    -17.325062     14.722175
  H      10.489424    -15.905029     17.267118
  H      11.278413    -13.923829     13.769641
  H      10.416547    -15.496649     13.750415
  H      12.096417    -13.119395     15.695279
  H      11.683622    -13.958748     17.227706
  C      13.998001     -9.220000      7.724999
  O      15.199870     -9.884238      8.012936
  C      14.251258     -7.792589      7.237702
  H      13.329681     -9.174595      8.584877
  H      13.507216     -9.804406      6.936668
  H      15.570488     -9.501994      8.833193
  H      14.776299     -7.238936      8.011231
  H      14.872680     -7.800886      6.344938
  H      13.312392     -7.292687      7.017021
  C      14.518001     -6.670000     12.632999
  S      13.707448     -8.269367     12.965151
  H      14.324364     -6.427596     11.588086
  H      15.585947     -6.784215     12.794618
  H      14.095669     -5.920463     13.294019
  H      14.469753     -8.900617     12.062663
  C      20.972000     -6.019000     10.963999
  C      20.066243     -7.038389     11.656335
  C      18.725402     -7.394873     10.945372
  O      17.981438     -8.150022     11.647432
  O      18.478763     -6.981583      9.817773
  H      20.586780     -5.000259     11.007275
  H      21.073498     -6.291072      9.915412
  H      21.959382     -6.029447     11.426562
  H      20.603593     -7.988565     11.732668
  H      19.823612     -6.713616     12.672540
  C      19.312999    -20.521999      7.175001
  C      18.326174    -19.442966      7.524069
  C      17.166007    -19.290148      6.772271
  C      18.543333    -18.565638      8.577373
  C      16.257216    -18.293238      7.058566
  C      17.639449    -17.560355      8.875439
  C      16.483647    -17.410319      8.115796
  O      15.566891    -16.448666      8.340747
  H      19.761228    -20.307815      6.204785
  H      18.819089    -21.490984      7.110958
  H      20.105053    -20.580691      7.917506
  H      16.970569    -19.968243      5.954158
  H      19.436035    -18.664646      9.180999
  H      15.358999    -18.175339      6.469979
  H      17.837636    -16.885046      9.696071
  H      15.781961    -15.912094      9.136659
  C      19.522001    -11.465000      7.842998
  C      19.557157    -10.482824      9.011343
  N      19.546412    -11.199010     10.261219
  C      20.450384    -11.008535     11.246241
  O      21.454919    -10.327418     11.140441
  N      20.177335    -11.747415     12.384357
  H      19.317472    -10.958064      6.899981
  H      18.770516    -12.225111      8.025324
  H      20.484348    -11.967573      7.753524
  H      20.466826     -9.878644      8.997274
  H      18.699953     -9.798030      8.963657
  H      18.775711    -11.833764     10.417318
  H      20.653147    -11.412234     13.207087
  H      19.208118    -11.992234     12.532785
114
Coordinates from ORCA-job 01_xtb_cit_react E -175.327747261130
  C      16.430299    -11.054064     12.494427
  C      15.233923    -11.257769     13.373657
  C      14.113476    -11.788261     12.857711
  C      13.952225    -11.897076     11.421166
  C      14.853641    -11.408372     10.573931
  C      16.085043    -10.684870     11.037922
  C      13.025583    -12.378010     13.696590
  O      13.083206    -12.304195     14.941767
  O      12.134774    -13.009522     13.061657
  O      15.869189     -9.308136     10.855468
  O      17.185938    -12.293539     12.565089
  C      16.520246    -13.451482     12.215408
  C      16.449013    -13.778140     10.746164
  O      17.283474    -13.244589      9.989995
  O      15.552226    -14.574904     10.355303
  C      16.022180    -14.268631     13.137271
  H      17.117089    -10.299264     12.889924
  H      15.365218    -11.149229     14.438231
  H      13.049703    -12.368512     11.062073
  H      14.680714    -11.449579      9.511650
  H      16.942571    -10.985887     10.418831
  H      16.760663     -8.765267     11.131578
  H      15.559752    -15.196459     12.850745
  H      16.068738    -14.027183     14.184461
  O      13.029268    -15.279604     11.558837
  H      13.900140    -15.078322     11.183966
  H      12.754828    -14.470785     12.016046
  C      12.785000    -13.909001      5.224001
  C      13.422545    -12.546832      5.485623
  N      14.777705    -12.576892      6.001645
  C      15.174968    -12.973358      7.235903
  N      14.461999    -13.789625      7.985794
  N      16.366666    -12.579352      7.641523
  H      13.453745    -14.682279      4.845952
  H      11.989263    -13.780439      4.492172
  H      12.320118    -14.304620      6.125873
  H      13.473984    -11.997359      4.543926
  H      12.769037    -11.985851      6.166711
  H      15.388014    -11.879782      5.602048
  H      14.850749    -14.112527      8.894808
  H      13.649896    -14.262532      7.634389
  H      16.754115    -12.914514      8.567492
  H      16.742619    -11.712217      7.294027
  C       8.412999    -16.813004     15.233001
  C       9.873889    -17.074002     15.620649
  N      10.513219    -15.948421     16.263613
  C      10.926100    -14.836204     15.590354
  N      10.741828    -14.716084     14.298215
  N      11.476335    -13.833739     16.252132
  H       7.736528    -17.001581     16.066623
  H       8.123933    -17.474748     14.421800
  H       8.285599    -15.786370     14.901665
  H       9.936114    -17.926467     16.299831
  H      10.457074    -17.324846     14.728166
  H      10.485550    -15.897191     17.268303
  H      11.283359    -13.920789     13.769801
  H      10.419119    -15.493063     13.751429
  H      12.096882    -13.114500     15.696412
  H      11.679901    -13.951657     17.229234
  C      13.998001     -9.220000      7.724999
  O      15.200970     -9.882578      8.012017
  C      14.247888     -7.792807      7.238075
  H      13.329681     -9.174595      8.584877
  H      13.509112     -9.804874      6.936682
  H      15.569223     -9.499925      8.832415
  H      14.781157     -7.239953      8.007692
  H      14.860207     -7.800933      6.338968
  H      13.305468     -7.291673      7.028337
  C      14.518001     -6.670000     12.632999
  S      13.716747     -8.273807     12.956695
  H      14.324364     -6.427596     11.588086
  H      15.585205     -6.771067     12.796919
  H      14.086065     -5.928494     13.295217
  H      14.479389     -8.901245     12.054868
  C      20.972000     -6.019000     10.963999
  C      20.065030     -7.037148     11.658057
  C      18.725884     -7.395410     10.946030
  O      17.977817     -8.149605     11.644579
  O      18.483934     -6.980164      9.817465
  H      20.586780     -5.000259     11.007275
  H      21.070901     -6.291078      9.914843
  H      21.960545     -6.029421     11.423816
  H      20.602183     -7.986695     11.736202
  H      19.821343     -6.710988     12.673058
  C      19.312999    -20.521999      7.175001
  C      18.325002    -19.444897      7.526628
  C      17.163449    -19.293504      6.777684
  C      18.544122    -18.565114      8.576084
  C      16.254921    -18.297065      7.064660
  C      17.639578    -17.561261      8.876481
  C      16.481462    -17.413681      8.121142
  O      15.563119    -16.453501      8.347577
  H      19.761228    -20.307815      6.204785
  H      18.820551    -21.491492      7.111370
  H      20.105529    -20.579973      7.916831
  H      16.971029    -19.967334      5.953083
  H      19.440724    -18.658781      9.172282
  H      15.353455    -18.183917      6.482387
  H      17.839842    -16.887189      9.697512
  H      15.778990    -15.913857      9.141258
  C      19.522001    -11.465000      7.842998
  C      19.559043    -10.482939      9.011082
  N      19.549775    -11.200012     10.260319
  C      20.456565    -11.013037     11.244079
  O      21.461592    -10.332124     11.139047
  N      20.184523    -11.753759     12.381728
  H      19.317472    -10.958064      6.899981
  H      18.769364    -12.223813      8.025734
  H      20.483806    -11.969036      7.753240
  H      20.468663     -9.878445      8.996694
  H      18.702006     -9.798662      8.963999
  H      18.778533    -11.834430     10.417973
  H      20.663700    -11.421783     13.203806
  H      19.214887    -11.997613     12.532565
114
Coordinates from ORCA-job 01_xtb_cit_react E -175.327875341890
  C      16.433561    -11.056264     12.493546
  C      15.238476    -11.261263     13.374501
  C      14.117828    -11.793912     12.860549
  C      13.955187    -11.901757     11.424658
  C      14.855006    -11.410900     10.577900
  C      16.087230    -10.687342     11.041141
  C      13.031689    -12.387066     13.699215
  O      13.087649    -12.312391     14.945527
  O      12.141531    -13.020236     13.063278
  O      15.872612     -9.310324     10.857886
  O      17.187980    -12.296178     12.565447
  C      16.524112    -13.454357     12.214532
  C      16.453381    -13.780142     10.744958
  O      17.288282    -13.247910      9.987813
  O      15.555451    -14.575630     10.354670
  C      16.025376    -14.273137     13.134317
  H      17.121625    -10.302481     12.887990
  H      15.370597    -11.153310     14.438919
  H      13.053395    -12.374195     11.065467
  H      14.684765    -11.450644      9.515657
  H      16.942199    -10.989024     10.419734
  H      16.764311     -8.765258     11.132446
  H      15.565119    -15.201969     12.846866
  H      16.069186    -14.032179     14.181519
  O      13.027896    -15.283577     11.548042
  H      13.899755    -15.080462     11.176537
  H      12.751713    -14.475919     12.005905
  C      12.785000    -13.909001      5.224001
  C      13.421869    -12.546576      5.486221
  N      14.777336    -12.576273      6.002061
  C      15.173233    -12.970666      7.238041
  N      14.459269    -13.785598      7.989434
  N      16.364709    -12.577704      7.643595
  H      13.453745    -14.682279      4.845952
  H      11.989523    -13.780554      4.491995
  H      12.319817    -14.305040      6.125405
  H      13.472762    -11.996892      4.544460
  H      12.767727    -11.985907      6.167215
  H      15.386643    -11.879197      5.603117
  H      14.849239    -14.109711      8.897285
  H      13.652728    -14.265011      7.636617
  H      16.755694    -12.913751      8.567614
  H      16.745375    -11.714491      7.293629
  C       8.412999    -16.813004     15.233001
  C       9.871066    -17.084366     15.622320
  N      10.518171    -15.962048     16.264009
  C      10.933237    -14.850175     15.590726
  N      10.751666    -14.730613     14.297803
  N      11.485196    -13.848401     16.254598
  H       7.736528    -17.001581     16.066623
  H       8.120846    -17.471254     14.419528
  H       8.292330    -15.785735     14.905710
  H       9.927378    -17.935779     16.304849
  H      10.450476    -17.341652     14.730727
  H      10.486126    -15.909123     17.267636
  H      11.293004    -13.933885     13.769717
  H      10.428833    -15.507803     13.748702
  H      12.103948    -13.126895     15.700325
  H      11.686370    -13.964802     17.233157
  C      13.998001     -9.220000      7.724999
  O      15.201335     -9.880875      8.013860
  C      14.243656     -7.790339      7.238511
  H      13.329681     -9.174595      8.584877
  H      13.511386     -9.805049      6.935235
  H      15.570222     -9.496939      8.833264
  H      14.779810     -7.237143      8.006175
  H      14.850494     -7.792587      6.336117
  H      13.298503     -7.292733      7.034570
  C      14.518001     -6.670000     12.632999
  S      13.739502     -8.286973     12.946558
  H      14.324364     -6.427596     11.588086
  H      15.586350     -6.752997     12.798478
  H      14.071129     -5.937688     13.295721
  H      14.515790     -8.899830     12.044703
  C      20.972000     -6.019000     10.963999
  C      20.065498     -7.037980     11.657977
  C      18.728511     -7.400232     10.944403
  O      17.976493     -8.149710     11.643605
  O      18.491052     -6.992283      9.811759
  H      20.586780     -5.000259     11.007275
  H      21.069692     -6.290305      9.914378
  H      21.961471     -6.028966     11.421803
  H      20.604324     -7.986682     11.736868
  H      19.820566     -6.712135     12.673324
  C      19.312999    -20.521999      7.175001
  C      18.323640    -19.445204      7.526271
  C      17.162185    -19.292614      6.776236
  C      18.541820    -18.565620      8.576126
  C      16.253457    -18.296323      7.063797
  C      17.637181    -17.561863      8.877197
  C      16.479062    -17.413915      8.121392
  O      15.557802    -16.456379      8.348454
  H      19.761228    -20.307815      6.204785
  H      18.821822    -21.492149      7.112248
  H      20.105551    -20.578344      7.916889
  H      16.970596    -19.965274      5.950370
  H      19.438395    -18.659969      9.172581
  H      15.352394    -18.181255      6.480116
  H      17.838675    -16.889656      9.699489
  H      15.772056    -15.911692      9.139648
  C      19.522001    -11.465000      7.842998
  C      19.554152    -10.484388      9.011593
  N      19.547640    -11.201766     10.260503
  C      20.457239    -11.015517     11.242653
  O      21.461521    -10.333915     11.135239
  N      20.187514    -11.753575     12.382041
  H      19.317472    -10.958064      6.899981
  H      18.771238    -12.225625      8.023254
  H      20.484802    -11.965848      7.754689
  H      20.460468     -9.875732      8.998094
  H      18.693682     -9.805715      8.964119
  H      18.777530    -11.838357     10.419719
  H      20.671664    -11.423760     13.201568
  H      19.219121    -12.001540     12.534734
114
Coordinates from ORCA-job 01_xtb_cit_react E -175.328003034140
  C      16.437334    -11.058367     12.497571
  C      15.245263    -11.265170     13.381269
  C      14.127172    -11.801779     12.867700
  C      13.962311    -11.909303     11.431180
  C      14.857039    -11.415096     10.582772
  C      16.089306    -10.691816     11.043012
  C      13.043226    -12.401000     13.705277
  O      13.099437    -12.329130     14.951737
  O      12.153724    -13.034922     13.068543
  O      15.877633     -9.314350     10.849936
  O      17.192800    -12.297773     12.570091
  C      16.532575    -13.456785     12.215958
  C      16.461155    -13.781299     10.744820
  O      17.297029    -13.251302      9.986096
  O      15.562198    -14.575846     10.355528
  C      16.037117    -14.280998     13.132764
  H      17.127326    -10.305173     12.889963
  H      15.376307    -11.158557     14.446564
  H      13.061413    -12.384376     11.073207
  H      14.689353    -11.450666      9.519629
  H      16.940229    -10.998297     10.420396
  H      16.770525     -8.766619     11.125098
  H      15.582949    -15.212197     12.843813
  H      16.079884    -14.043177     14.180992
  O      13.025260    -15.291465     11.530762
  H      13.898542    -15.083981     11.165261
  H      12.745018    -14.485387     11.989444
  C      12.785000    -13.909001      5.224001
  C      13.421260    -12.546955      5.487712
  N      14.776444    -12.577668      6.004243
  C      15.170581    -12.970271      7.242066
  N      14.453449    -13.779344      7.997055
  N      16.362093    -12.577934      7.646589
  H      13.453745    -14.682279      4.845952
  H      11.990253    -13.779935      4.491222
  H      12.318623    -14.306185      6.124366
  H      13.473228    -11.997478      4.545710
  H      12.765456    -11.985929      6.167130
  H      15.385039    -11.877678      5.607289
  H      14.846854    -14.103576      8.903371
  H      13.655410    -14.270185      7.641417
  H      16.757557    -12.915292      8.568704
  H      16.753643    -11.722832      7.288478
  C       8.412999    -16.813004     15.233001
  C       9.869423    -17.099079     15.621214
  N      10.527130    -15.983832     16.263983
  C      10.944539    -14.872195     15.591252
  N      10.766079    -14.751073     14.298232
  N      11.499669    -13.873208     16.256915
  H       7.736528    -17.001581     16.066622
  H       8.114401    -17.466354     14.416994
  H       8.300677    -15.782809     14.910217
  H       9.916760    -17.952010     16.301546
  H      10.446501    -17.359748     14.728974
  H      10.483161    -15.925850     17.267001
  H      11.310240    -13.953459     13.772375
  H      10.442473    -15.525777     13.747502
  H      12.119060    -13.150776     15.705226
  H      11.699123    -13.990175     17.235825
  C      13.998001     -9.220000      7.724999
  O      15.201412     -9.877347      8.016139
  C      14.237181     -7.787864      7.239348
  H      13.329681     -9.174595      8.584877
  H      13.515516     -9.805027      6.933317
  H      15.569867     -9.491997      8.835280
  H      14.778791     -7.233906      8.002349
  H      14.834314     -7.783523      6.330760
  H      13.287682     -7.294599      7.045648
  C      14.518001     -6.670000     12.632999
  S      13.748736     -8.292478     12.942191
  H      14.324364     -6.427596     11.588086
  H      15.587204     -6.742815     12.800568
  H      14.062414     -5.940144     13.293135
  H      14.533156     -8.895285     12.039344
  C      20.972000     -6.019000     10.963999
  C      20.064931     -7.038073     11.656061
  C      18.730680     -7.402529     10.939819
  O      17.977466     -8.150672     11.639333
  O      18.496344     -6.999435      9.804918
  H      20.586780     -5.000259     11.007275
  H      21.069299     -6.288431      9.913679
  H      21.962469     -6.029272     11.419793
  H      20.605216     -7.985845     11.735000
  H      19.819464     -6.714529     12.672012
  C      19.312999    -20.521999      7.175001
  C      18.321535    -19.446507      7.526024
  C      17.158363    -19.295612      6.778248
  C      18.538464    -18.565982      8.575476
  C      16.247829    -18.301588      7.068290
  C      17.632696    -17.563694      8.878707
  C      16.471889    -17.418920      8.126342
  O      15.545480    -16.466227      8.355171
  H      19.761228    -20.307815      6.204785
  H      18.824236    -21.493483      7.114134
  H      20.105759    -20.574990      7.917118
  H      16.967652    -19.968133      5.951980
  H      19.436411    -18.658983      9.170135
  H      15.344029    -18.189726      6.489051
  H      17.836686    -16.892610      9.701177
  H      15.759000    -15.912485      9.140417
  C      19.522001    -11.465000      7.842998
  C      19.549505    -10.487868      9.014016
  N      19.547313    -11.207073     10.261679
  C      20.459436    -11.021414     11.241322
  O      21.462756    -10.338252     11.130600
  N      20.195093    -11.759634     12.380364
  H      19.317472    -10.958064      6.899981
  H      18.772909    -12.227862      8.019804
  H      20.486209    -11.962460      7.755819
  H      20.452469     -9.875068      9.000739
  H      18.684726     -9.815926      8.968870
  H      18.780718    -11.847955     10.421815
  H      20.687108    -11.434442     13.196815
  H      19.229375    -12.013938     12.536226
114
Coordinates from ORCA-job 01_xtb_cit_react E -175.328088803360
  C      16.437871    -11.062663     12.493276
  C      15.242151    -11.270985     13.372485
  C      14.124263    -11.809167     12.861995
  C      13.960477    -11.919920     11.427187
  C      14.858732    -11.423852     10.580676
  C      16.093275    -10.697912     11.042408
  C      13.044342    -12.410848     13.701815
  O      13.102417    -12.341476     14.947395
  O      12.155931    -13.047215     13.064735
  O      15.884462     -9.324351     10.842136
  O      17.192368    -12.305007     12.561315
  C      16.531736    -13.462471     12.205026
  C      16.461823    -13.789155     10.735828
  O      17.301450    -13.262593      9.980207
  O      15.562793    -14.583932     10.346404
  C      16.032526    -14.285817     13.120757
  H      17.129188    -10.311630     12.888739
  H      15.370330    -11.165241     14.437855
  H      13.061474    -12.397505     11.069768
  H      14.695578    -11.458192      9.517861
  H      16.942703    -11.008103     10.419073
  H      16.778474     -8.772843     11.113943
  H      15.580273    -15.217803     12.833414
  H      16.076218    -14.048561     14.169521
  O      13.014210    -15.301926     11.506225
  H      13.889556    -15.090247     11.145419
  H      12.731514    -14.496906     11.967350
  C      12.785000    -13.909001      5.224001
  C      13.422031    -12.547732      5.488631
  N      14.778159    -12.581440      6.001726
  C      15.171756    -12.974334      7.239418
  N      14.448218    -13.777877      7.994903
  N      16.363059    -12.586392      7.645990
  H      13.453745    -14.682279      4.845952
  H      11.990683    -13.779146      4.491060
  H      12.318246    -14.306939      6.123646
  H      13.472976    -11.996352      4.547849
  H      12.767378    -11.988388      6.170324
  H      15.387270    -11.881735      5.605229
  H      14.841644    -14.105376      8.899745
  H      13.657326    -14.275946      7.632976
  H      16.758925    -12.925106      8.566299
  H      16.762463    -11.736959      7.282562
  C       8.412999    -16.813004     15.233001
  C       9.868150    -17.114017     15.614685
  N      10.538099    -16.006405     16.257512
  C      10.953572    -14.893296     15.584308
  N      10.776077    -14.770632     14.291830
  N      11.509496    -13.895010     16.250481
  H       7.736528    -17.001581     16.066622
  H       8.106341    -17.456613     14.413701
  H       8.310176    -15.779599     14.918106
  H       9.909665    -17.969910     16.291443
  H      10.440415    -17.375601     14.719749
  H      10.483483    -15.942646     17.260547
  H      11.320781    -13.970965     13.766900
  H      10.451950    -15.544684     13.740515
  H      12.127156    -13.170701     15.700179
  H      11.710374    -14.013524     17.228495
  C      13.998001     -9.220000      7.724999
  O      15.202155     -9.879735      8.018727
  C      14.238933     -7.786946      7.242773
  H      13.329681     -9.174595      8.584877
  H      13.517552     -9.802014      6.930791
  H      15.573463     -9.489722      8.836596
  H      14.788450     -7.237119      8.002523
  H      14.827803     -7.780681      6.328843
  H      13.289422     -7.289876      7.058006
  C      14.518001     -6.670000     12.632999
  S      13.767430     -8.302382     12.939801
  H      14.324364     -6.427596     11.588086
  H      15.586509     -6.727341     12.801491
  H      14.055749     -5.946848     13.294636
  H      14.562041     -8.900392     12.040688
  C      20.972000     -6.019000     10.963999
  C      20.062792     -7.036695     11.655535
  C      18.734825     -7.407715     10.930136
  O      17.981221     -8.156175     11.629384
  O      18.508347     -7.011604      9.791225
  H      20.586780     -5.000259     11.007275
  H      21.069794     -6.287669      9.913458
  H      21.962978     -6.030254     11.419377
  H      20.606230     -7.983603     11.740710
  H      19.810030     -6.710838     12.669419
  C      19.312999    -20.521999      7.175001
  C      18.316613    -19.450314      7.524079
  C      17.149534    -19.308461      6.781310
  C      18.531808    -18.563870      8.569378
  C      16.233884    -18.320136      7.072997
  C      17.621396    -17.566095      8.873547
  C      16.455684    -17.432064      8.127272
  O      15.521139    -16.487599      8.358737
  H      19.761228    -20.307815      6.204785
  H      18.828866    -21.496099      7.116216
  H      20.105723    -20.569271      7.917876
  H      16.959450    -19.985264      5.958572
  H      19.432743    -18.649373      9.160560
  H      15.327699    -18.215289      6.496179
  H      17.827311    -16.891606      9.692633
  H      15.735082    -15.925038      9.137823
  C      19.522001    -11.465000      7.842998
  C      19.535192    -10.491906      9.017957
  N      19.540374    -11.214598     10.262438
  C      20.455901    -11.030596     11.238308
  O      21.456504    -10.343957     11.124804
  N      20.197712    -11.773407     12.375908
  H      19.317472    -10.958064      6.899981
  H      18.779582    -12.236802      8.011239
  H      20.492285    -11.952587      7.759276
  H      20.430549     -9.867209      9.006592
  H      18.661102     -9.832127      8.974840
  H      18.779157    -11.863100     10.422772
  H      20.695886    -11.453755     13.191192
  H      19.233589    -12.032936     12.533485
114
Coordinates from ORCA-job 01_xtb_cit_react E -175.328184845040
  C      16.438851    -11.073297     12.492317
  C      15.244670    -11.283600     13.371117
  C      14.126396    -11.818965     12.858863
  C      13.962000    -11.927356     11.423830
  C      14.859561    -11.430339     10.576649
  C      16.093664    -10.706602     11.038580
  C      13.047894    -12.422550     13.698573
  O      13.105685    -12.354295     14.944154
  O      12.160224    -13.059226     13.061356
  O      15.886578     -9.331421     10.836415
  O      17.195036    -12.313389     12.561530
  C      16.535111    -13.471651     12.205173
  C      16.464333    -13.796542     10.734670
  O      17.304547    -13.270410      9.979166
  O      15.565875    -14.590805     10.343977
  C      16.040210    -14.298491     13.119955
  H      17.128395    -10.321645     12.889406
  H      15.371190    -11.179925     14.437296
  H      13.063085    -12.405324     11.066987
  H      14.696653    -11.462071      9.513405
  H      16.943433    -11.018453     10.416623
  H      16.783270     -8.782319     11.110450
  H      15.588485    -15.230627     12.831528
  H      16.086582    -14.064777     14.169921
  O      13.012977    -15.309129     11.496374
  H      13.888039    -15.095969     11.137274
  H      12.729463    -14.505933     11.957840
  C      12.785000    -13.909001      5.224001
  C      13.423045    -12.548231      5.489897
  N      14.779337    -12.583395      6.002838
  C      15.174351    -12.978030      7.239423
  N      14.449676    -13.780617      7.995214
  N      16.365475    -12.589861      7.646320
  H      13.453745    -14.682279      4.845952
  H      11.991212    -13.778318      4.490617
  H      12.317657    -14.306974      6.123385
  H      13.474772    -11.995474      4.549833
  H      12.768283    -11.989827      6.172441
  H      15.387907    -11.882412      5.607697
  H      14.843251    -14.107354      8.900445
  H      13.661527    -14.281950      7.630996
  H      16.761020    -12.931337      8.566763
  H      16.767242    -11.742285      7.280513
  C       8.412999    -16.813004     15.233001
  C       9.867427    -17.120867     15.611152
  N      10.544314    -16.018022     16.254992
  C      10.958820    -14.904500     15.582659
  N      10.779869    -14.780608     14.290179
  N      11.514622    -13.906733     16.249310
  H       7.736528    -17.001581     16.066623
  H       8.102541    -17.452363     14.410770
  H       8.313753    -15.777331     14.922175
  H       9.907506    -17.977920     16.286983
  H      10.436242    -17.383675     14.714615
  H      10.490153    -15.956066     17.258207
  H      11.326733    -13.981683     13.765094
  H      10.457321    -15.555322     13.738964
  H      12.132620    -13.183079     15.697777
  H      11.716112    -14.026062     17.227152
  C      13.998001     -9.220000      7.724999
  O      15.201506     -9.877995      8.017956
  C      14.239257     -7.787635      7.242317
  H      13.329681     -9.174595      8.584877
  H      13.517890     -9.803225      6.931340
  H      15.573880     -9.490349      8.836624
  H      14.788655     -7.237399      8.001949
  H      14.829111     -7.783232      6.328603
  H      13.290349     -7.290053      7.055745
  C      14.518001     -6.670000     12.632999
  S      13.768176     -8.302684     12.941907
  H      14.324364     -6.427596     11.588086
  H      15.587240     -6.730367     12.804854
  H      14.056231     -5.945840     13.294683
  H      14.561983     -8.899887     12.041989
  C      20.972000     -6.019000     10.963999
  C      20.062739     -7.038021     11.653856
  C      18.735045     -7.411795     10.928184
  O      17.983617     -8.162047     11.627166
  O      18.508972     -7.017030      9.788977
  H      20.586780     -5.000259     11.007275
  H      21.071207     -6.287628      9.913649
  H      21.962221     -6.030543     11.420652
  H      20.607224     -7.983529     11.738180
  H      19.808614     -6.713219     12.667142
  C      19.312999    -20.521999      7.175001
  C      18.316235    -19.450322      7.522995
  C      17.148674    -19.308894      6.780010
  C      18.530751    -18.563705      8.568673
  C      16.232224    -18.321230      7.071703
  C      17.619703    -17.566395      8.872483
  C      16.454096    -17.432350      8.125351
  O      15.518070    -16.490129      8.357112
  H      19.761228    -20.307815      6.204785
  H      18.828236    -21.495880      7.115366
  H      20.105251    -20.569539      7.918382
  H      16.956522    -19.988148      5.960917
  H      19.430855    -18.649414      9.162367
  H      15.327131    -18.214562      6.491506
  H      17.825859    -16.891531      9.691443
  H      15.731604    -15.926241      9.135026
  C      19.522001    -11.465000      7.842998
  C      19.531861    -10.494682      9.020636
  N      19.540688    -11.221536     10.263532
  C      20.455386    -11.036800     11.240354
  O      21.454359    -10.347027     11.130568
  N      20.198959    -11.784955     12.375439
  H      19.317472    -10.958064      6.899981
  H      18.782253    -12.239882      8.009024
  H      20.494116    -11.949229      7.759592
  H      20.424877     -9.866873      9.010602
  H      18.655690     -9.837669      8.978894
  H      18.782448    -11.872394     10.421811
  H      20.697823    -11.469437     13.192004
  H      19.235907    -12.047009     12.533920
114
Coordinates from ORCA-job 01_xtb_cit_react E -175.328279171780
  C      16.441227    -11.078876     12.488382
  C      15.247241    -11.288378     13.368150
  C      14.128250    -11.820973     12.854192
  C      13.964105    -11.928839     11.418354
  C      14.861659    -11.434130     10.570413
  C      16.094945    -10.712500     11.032200
  C      13.050506    -12.426196     13.694293
  O      13.108841    -12.360620     14.939767
  O      12.163603    -13.063288     13.057238
  O      15.888915     -9.335827     10.829835
  O      17.197276    -12.318449     12.557523
  C      16.535838    -13.477083     12.204945
  C      16.464285    -13.802254     10.733983
  O      17.304672    -13.275719      9.978763
  O      15.568192    -14.598901     10.342097
  C      16.045159    -14.304651     13.121501
  H      17.130266    -10.326009     12.883156
  H      15.370542    -11.186626     14.435308
  H      13.064471    -12.406324     11.062113
  H      14.698455    -11.464991      9.506498
  H      16.946993    -11.025309     10.413356
  H      16.788186     -8.789635     11.105304
  H      15.591461    -15.235777     12.832845
  H      16.095676    -14.073965     14.172413
  O      13.010027    -15.312731     11.490850
  H      13.884959    -15.100303     11.133067
  H      12.727017    -14.509925     11.951870
  C      12.785000    -13.909001      5.224001
  C      13.424228    -12.548552      5.491066
  N      14.780627    -12.584992      6.003713
  C      15.177813    -12.982427      7.238376
  N      14.452143    -13.783824      7.994921
  N      16.368895    -12.595250      7.646031
  H      13.453745    -14.682279      4.845952
  H      11.991535    -13.777529      4.490441
  H      12.317493    -14.306213      6.123734
  H      13.476394    -11.994384      4.552023
  H      12.769938    -11.991344      6.174985
  H      15.389012    -11.882706      5.609355
  H      14.845117    -14.110754      8.900649
  H      13.665834    -14.285740      7.628741
  H      16.762684    -12.937529      8.567616
  H      16.770639    -11.748607      7.279359
  C       8.412999    -16.813004     15.233001
  C       9.868516    -17.123514     15.603920
  N      10.552561    -16.025724     16.249373
  C      10.964809    -14.910029     15.579672
  N      10.782666    -14.782045     14.287925
  N      11.519607    -13.913003     16.247551
  H       7.736528    -17.001581     16.066622
  H       8.098974    -17.448676     14.408271
  H       8.314355    -15.774726     14.925493
  H       9.910370    -17.982300     16.276425
  H      10.433815    -17.384919     14.704047
  H      10.500260    -15.966887     17.253210
  H      11.332285    -13.983773     13.763419
  H      10.461358    -15.556339     13.736631
  H      12.137904    -13.190028     15.694546
  H      11.724462    -14.036010     17.224179
  C      13.998001     -9.220000      7.724999
  O      15.201044     -9.878273      8.017513
  C      14.243092     -7.788906      7.241056
  H      13.329681     -9.174595      8.584877
  H      13.516851     -9.804981      6.932453
  H      15.575600     -9.488797      8.834316
  H      14.788422     -7.238840      8.003633
  H      14.840206     -7.788243      6.331744
  H      13.297618     -7.289277      7.045673
  C      14.518001     -6.670000     12.632999
  S      13.780974     -8.310003     12.941883
  H      14.324364     -6.427596     11.588086
  H      15.588684     -6.726134     12.807221
  H      14.050177     -5.949958     13.296082
  H      14.576745     -8.900654     12.038445
  C      20.972000     -6.019000     10.963999
  C      20.063509     -7.039132     11.652917
  C      18.737655     -7.418973     10.925804
  O      17.989159     -8.171031     11.625831
  O      18.511423     -7.028183      9.785743
  H      20.586780     -5.000259     11.007275
  H      21.074077     -6.289246      9.914627
  H      21.960276     -6.030558     11.424493
  H      20.609576     -7.983260     11.740670
  H      19.805060     -6.712234     12.663930
  C      19.312999    -20.521999      7.175001
  C      18.316448    -19.451418      7.523832
  C      17.147676    -19.313222      6.783513
  C      18.532496    -18.562650      8.566898
  C      16.230662    -18.326537      7.074944
  C      17.619977    -17.567045      8.871868
  C      16.452908    -17.435848      8.127131
  O      15.516363    -16.495375      8.359071
  H      19.761228    -20.307815      6.204785
  H      18.827745    -21.495387      7.114181
  H      20.104945    -20.570338      7.918307
  H      16.954921    -19.992931      5.964595
  H      19.434195    -18.644659      9.158203
  H      15.322495    -18.226323      6.500764
  H      17.826252    -16.890077      9.689348
  H      15.729609    -15.931195      9.136663
  C      19.522001    -11.465000      7.842998
  C      19.525764    -10.496772      9.022465
  N      19.540101    -11.227272     10.263786
  C      20.455235    -11.042104     11.239448
  O      21.452776    -10.350525     11.132067
  N      20.201948    -11.795968     12.371585
  H      19.317472    -10.958064      6.899981
  H      18.786848    -12.245192      8.006659
  H      20.496985    -11.943742      7.760565
  H      20.414699     -9.863257      9.013354
  H      18.645705     -9.844476      8.981877
  H      18.784026    -11.880199     10.419858
  H      20.701278    -11.485059     13.189105
  H      19.239879    -12.059196     12.532110
114
Coordinates from ORCA-job 01_xtb_cit_react E -175.328345077760
  C      16.440489    -11.080355     12.482595
  C      15.245249    -11.287957     13.360032
  C      14.125252    -11.820027     12.843887
  C      13.963557    -11.930416     11.408009
  C      14.863630    -11.439425     10.561290
  C      16.096419    -10.717989     11.023643
  C      13.046791    -12.424314     13.684180
  O      13.103371    -12.357151     14.929795
  O      12.161907    -13.063999     13.046996
  O      15.893792     -9.341431     10.816637
  O      17.197621    -12.319847     12.550958
  C      16.535808    -13.479635     12.202906
  C      16.463879    -13.808379     10.733075
  O      17.305706    -13.283114      9.978481
  O      15.570176    -14.607320     10.340706
  C      16.050071    -14.306528     13.122785
  H      17.128339    -10.326443     12.875885
  H      15.364393    -11.184328     14.427431
  H      13.063548    -12.407676     11.052051
  H      14.702234    -11.473325      9.496852
  H      16.950608    -11.035683     10.409397
  H      16.797261     -8.797861     11.092192
  H      15.595010    -15.237346     12.835086
  H      16.104011    -14.076974     14.173709
  O      13.004112    -15.316521     11.483386
  H      13.879605    -15.103645     11.127135
  H      12.719419    -14.513740     11.943537
  C      12.785000    -13.909001      5.224001
  C      13.425937    -12.549657      5.494453
  N      14.783638    -12.588233      6.004161
  C      15.182555    -12.987818      7.237232
  N      14.456438    -13.789907      7.993410
  N      16.373020    -12.599502      7.646412
  H      13.453745    -14.682279      4.845952
  H      11.992798    -13.775554      4.489482
  H      12.316009    -14.306137      6.123072
  H      13.476373    -11.992014      4.557581
  H      12.773972    -11.995259      6.182479
  H      15.389809    -11.882248      5.612759
  H      14.846822    -14.115323      8.900300
  H      13.672466    -14.294428      7.624426
  H      16.764242    -12.945129      8.569283
  H      16.777992    -11.753752      7.280024
  C       8.412999    -16.813004     15.233001
  C       9.869306    -17.124003     15.598231
  N      10.558647    -16.026769     16.241360
  C      10.963545    -14.907697     15.571836
  N      10.778682    -14.778912     14.280195
  N      11.512704    -13.907271     16.239878
  H       7.736528    -17.001581     16.066623
  H       8.096892    -17.445134     14.406474
  H       8.314602    -15.773964     14.928562
  H       9.915064    -17.982168     16.271562
  H      10.429962    -17.387182     14.695961
  H      10.506679    -15.966776     17.245493
  H      11.331745    -13.981755     13.755376
  H      10.464625    -15.557033     13.728961
  H      12.131716    -13.186086     15.685125
  H      11.720655    -14.031050     17.215754
  C      13.998001     -9.220000      7.724999
  O      15.199133     -9.884229      8.014307
  C      14.251309     -7.790530      7.242926
  H      13.329681     -9.174595      8.584877
  H      13.513486     -9.802594      6.932432
  H      15.576705     -9.494930      8.829816
  H      14.797815     -7.244971      8.008134
  H      14.852019     -7.793941      6.335768
  H      13.309682     -7.284300      7.045091
  C      14.518001     -6.670000     12.632999
  S      13.793308     -8.314770     12.940909
  H      14.324364     -6.427596     11.588086
  H      15.588530     -6.718072     12.809208
  H      14.043111     -5.956241     13.297696
  H      14.587919     -8.904875     12.037036
  C      20.972000     -6.019000     10.963999
  C      20.063133     -7.040985     11.650371
  C      18.742889     -7.428008     10.916686
  O      17.992728     -8.182578     11.613690
  O      18.521631     -7.038528      9.775552
  H      20.586780     -5.000259     11.007275
  H      21.077575     -6.290171      9.915606
  H      21.957693     -6.030260     11.429088
  H      20.610181     -7.983438     11.744577
  H      19.796366     -6.711354     12.657961
  C      19.312999    -20.521999      7.175001
  C      18.316144    -19.451093      7.523538
  C      17.145067    -19.316785      6.785045
  C      18.533154    -18.559724      8.565019
  C      16.225848    -18.331891      7.077734
  C      17.618564    -17.565799      8.870558
  C      16.449302    -17.438721      8.127999
  O      15.509889    -16.502253      8.362423
  H      19.761228    -20.307815      6.204785
  H      18.826873    -21.494951      7.113000
  H      20.104737    -20.571403      7.918510
  H      16.949278    -20.000295      5.970543
  H      19.435653    -18.638945      9.156456
  H      15.317437    -18.232355      6.501569
  H      17.824532    -16.885144      9.685322
  H      15.722641    -15.936237      9.139045
  C      19.522001    -11.465000      7.842998
  C      19.513781    -10.498308      9.024173
  N      19.536898    -11.232532     10.263300
  C      20.453838    -11.046064     11.236758
  O      21.447936    -10.349806     11.130637
  N      20.206374    -11.806216     12.366226
  H      19.317472    -10.958064      6.899981
  H      18.793647    -12.252732      8.002262
  H      20.501717    -11.934932      7.763316
  H      20.394204     -9.853182      9.016842
  H      18.625281     -9.857172      8.984955
  H      18.785215    -11.891112     10.416746
  H      20.707032    -11.498534     13.184147
  H      19.245783    -12.071552     12.530590
114
Coordinates from ORCA-job 01_xtb_cit_react E -175.328390831680
  C      16.442359    -11.086291     12.477050
  C      15.246474    -11.296611     13.355274
  C      14.126313    -11.826494     12.839043
  C      13.964152    -11.933999     11.403255
  C      14.865696    -11.443330     10.556807
  C      16.098883    -10.722142     11.019863
  C      13.049734    -12.432567     13.680005
  O      13.108328    -12.367814     14.925734
  O      12.164077    -13.072138     13.042932
  O      15.897685     -9.345333     10.815032
  O      17.199027    -12.325669     12.544653
  C      16.535924    -13.485278     12.199258
  C      16.463827    -13.815180     10.730495
  O      17.305757    -13.289467      9.975671
  O      15.571026    -14.615149     10.338524
  C      16.050973    -14.310907     13.120648
  H      17.129449    -10.332711     12.872127
  H      15.365521    -11.194303     14.422735
  H      13.063163    -12.409943     11.048013
  H      14.704841    -11.478011      9.492259
  H      16.953968    -11.040651     10.407250
  H      16.803300     -8.802778     11.091513
  H      15.593215    -15.240511     12.832416
  H      16.106501    -14.081390     14.170904
  O      13.000145    -15.320368     11.476280
  H      13.876275    -15.108126     11.121643
  H      12.715086    -14.518322     11.937519
  C      12.785000    -13.909001      5.224001
  C      13.426673    -12.549933      5.495351
  N      14.785081    -12.589267      6.003223
  C      15.184415    -12.989891      7.235726
  N      14.457130    -13.790815      7.992173
  N      16.374692    -12.603504      7.645691
  H      13.453745    -14.682279      4.845952
  H      11.993102    -13.775046      4.489274
  H      12.315669    -14.305954      6.122989
  H      13.475389    -11.990748      4.559363
  H      12.776473    -11.996547      6.185836
  H      15.391248    -11.885197      5.611308
  H      14.846414    -14.117691      8.899101
  H      13.674874    -14.295905      7.621630
  H      16.764946    -12.950023      8.568254
  H      16.780141    -11.758671      7.278163
  C       8.412999    -16.813004     15.233001
  C       9.868603    -17.132589     15.592547
  N      10.566777    -16.040198     16.235419
  C      10.970304    -14.919310     15.567766
  N      10.783033    -14.787733     14.276821
  N      11.519846    -13.920025     16.237145
  H       7.736528    -17.001581     16.066623
  H       8.091870    -17.438593     14.403792
  H       8.318973    -15.772581     14.933908
  H       9.914274    -17.992519     16.263888
  H      10.424114    -17.396641     14.687286
  H      10.515718    -15.981462     17.239061
  H      11.336988    -13.990492     13.752295
  H      10.468636    -15.565278     13.724969
  H      12.138423    -13.199117     15.681833
  H      11.729388    -14.045503     17.212479
  C      13.998001     -9.220000      7.724999
  O      15.198291     -9.886347      8.013981
  C      14.254685     -7.791617      7.242979
  H      13.329681     -9.174595      8.584877
  H      13.512707     -9.802672      6.932918
  H      15.578007     -9.496036      8.827708
  H      14.800373     -7.247722      8.010205
  H      14.858129     -7.798056      6.337638
  H      13.315181     -7.281939      7.042796
  C      14.518001     -6.670000     12.632999
  S      13.809294     -8.323302     12.935954
  H      14.324364     -6.427596     11.588086
  H      15.588297     -6.706831     12.811678
  H      14.034183     -5.962907     13.298013
  H      14.610517     -8.905657     12.032350
  C      20.972000     -6.019000     10.963999
  C      20.062939     -7.041256     11.650514
  C      18.746966     -7.435269     10.913642
  O      17.996223     -8.188161     11.611937
  O      18.527538     -7.052614      9.769590
  H      20.586780     -5.000259     11.007275
  H      21.078682     -6.290677      9.916045
  H      21.956636     -6.029795     11.431077
  H      20.611685     -7.982427     11.750886
  H      19.790736     -6.708526     12.655764
  C      19.312999    -20.521999      7.175001
  C      18.314650    -19.452937      7.523947
  C      17.141685    -19.324044      6.788191
  C      18.532940    -18.557631      8.560632
  C      16.220996    -18.340392      7.079881
  C      17.616064    -17.566097      8.866481
  C      16.444453    -17.444401      8.127278
  O      15.503124    -16.510132      8.362278
  H      19.761228    -20.307815      6.204785
  H      18.828318    -21.495387      7.113140
  H      20.104742    -20.570690      7.918218
  H      16.947329    -20.007770      5.972425
  H      19.438709    -18.630111      9.146258
  H      15.310009    -18.246754      6.508001
  H      17.821908    -16.883361      9.679375
  H      15.715513    -15.942708      9.138492
  C      19.522001    -11.465000      7.842998
  C      19.503930    -10.499730      9.025184
  N      19.533181    -11.235691     10.263456
  C      20.451856    -11.049033     11.235149
  O      21.443234    -10.349398     11.128693
  N      20.208404    -11.812685     12.363643
  H      19.317472    -10.958064      6.899981
  H      18.798616    -12.258325      7.998730
  H      20.505191    -11.928481      7.765810
  H      20.378367     -9.846099      9.018769
  H      18.609686     -9.866188      8.987143
  H      18.784100    -11.897644     10.415822
  H      20.709467    -11.506466     13.182023
  H      19.248377    -12.080762     12.530195
114
Coordinates from ORCA-job 01_xtb_cit_react E -175.328429282330
  C      16.440259    -11.085024     12.474833
  C      15.243287    -11.295316     13.352176
  C      14.123377    -11.826530     12.834897
  C      13.962800    -11.933584     11.398790
  C      14.865360    -11.443784     10.553717
  C      16.098704    -10.721815     11.016886
  C      13.046898    -12.434071     13.674391
  O      13.106451    -12.370042     14.920198
  O      12.161479    -13.074100     13.037163
  O      15.899498     -9.345720     10.810806
  O      17.197693    -12.324556     12.541889
  C      16.534362    -13.484250     12.196882
  C      16.462888    -13.816390     10.729368
  O      17.304708    -13.290779      9.974158
  O      15.570798    -14.617628     10.338615
  C      16.049661    -14.309068     13.119563
  H      17.127283    -10.331273     12.870639
  H      15.363222    -11.191786     14.419803
  H      13.061455    -12.409091     11.042768
  H      14.705173    -11.481574      9.489323
  H      16.954011    -11.043044     10.405956
  H      16.805149     -8.802029     11.088484
  H      15.591504    -15.237987     12.830326
  H      16.103023    -14.077574     14.169575
  O      12.997305    -15.321333     11.472407
  H      13.874181    -15.109433     11.119140
  H      12.710347    -14.519333     11.933863
  C      12.785000    -13.909001      5.224001
  C      13.426552    -12.550147      5.495464
  N      14.785602    -12.589758      6.001506
  C      15.184450    -12.990158      7.234349
  N      14.456755    -13.790910      7.990821
  N      16.374873    -12.604806      7.644443
  H      13.453745    -14.682279      4.845952
  H      11.993162    -13.775076      4.489300
  H      12.315593    -14.306189      6.122745
  H      13.473297    -11.990542      4.559647
  H      12.777791    -11.996804      6.187394
  H      15.391430    -11.885118      5.609403
  H      14.845223    -14.117800      8.897859
  H      13.674572    -14.296528      7.620172
  H      16.764761    -12.950917      8.566905
  H      16.781944    -11.762167      7.275293
  C       8.412999    -16.813004     15.233001
  C       9.868158    -17.135953     15.590702
  N      10.569485    -16.044446     16.230983
  C      10.970454    -14.922936     15.562279
  N      10.782199    -14.791725     14.271245
  N      11.518757    -13.922568     16.231395
  H       7.736528    -17.001581     16.066622
  H       8.089788    -17.437634     14.403636
  H       8.320017    -15.772524     14.934164
  H       9.914081    -17.995638     16.262093
  H      10.420779    -17.401440     14.684186
  H      10.516265    -15.981856     17.234685
  H      11.336010    -13.994277     13.747180
  H      10.470707    -15.570528     13.719230
  H      12.136811    -13.202583     15.676213
  H      11.729052    -14.047448     17.206794
  C      13.998001     -9.220000      7.724999
  O      15.197170     -9.889408      8.013658
  C      14.257750     -7.791217      7.244028
  H      13.329681     -9.174595      8.584877
  H      13.511343     -9.801259      6.932380
  H      15.577262     -9.498982      8.826753
  H      14.801047     -7.248938      8.014000
  H      14.864201     -7.797619      6.341097
  H      13.320115     -7.279955      7.041308
  C      14.518001     -6.670000     12.632999
  S      13.813060     -8.324988     12.933989
  H      14.324364     -6.427596     11.588086
  H      15.587754     -6.702113     12.812214
  H      14.030157     -5.964242     13.296238
  H      14.616119     -8.906780     12.030803
  C      20.972000     -6.019000     10.963999
  C      20.061010     -7.040183     11.649347
  C      18.748571     -7.436273     10.909240
  O      17.995594     -8.186584     11.607857
  O      18.530907     -7.056924      9.763585
  H      20.586780     -5.000259     11.007275
  H      21.080414     -6.290134      9.915969
  H      21.955683     -6.029773     11.433356
  H      20.609627     -7.981205     11.754883
  H      19.785153     -6.705128     12.653030
  C      19.312999    -20.521999      7.175001
  C      18.313701    -19.453574      7.523664
  C      17.138923    -19.329404      6.790400
  C      18.532326    -18.556032      8.558166
  C      16.216852    -18.346817      7.081596
  C      17.613892    -17.565882      8.863610
  C      16.440328    -17.448777      8.126963
  O      15.497930    -16.515244      8.361983
  H      19.761228    -20.307815      6.204785
  H      18.829470    -21.495879      7.113986
  H      20.104892    -20.569869      7.917962
  H      16.945224    -20.014667      5.975569
  H      19.439301    -18.625964      9.142162
  H      15.303631    -18.257824      6.513520
  H      17.818830    -16.881042      9.674753
  H      15.709962    -15.946549      9.137595
  C      19.522001    -11.465000      7.842998
  C      19.496626    -10.499973      9.024836
  N      19.529423    -11.235729     10.263062
  C      20.449239    -11.048527     11.233649
  O      21.438527    -10.345956     11.126085
  N      20.209989    -11.814525     12.361135
  H      19.317472    -10.958064      6.899981
  H      18.801820    -12.261156      7.996986
  H      20.507011    -11.924016      7.768125
  H      20.366465     -9.840417      9.018735
  H      18.598471     -9.872090      8.987719
  H      18.782015    -11.900469     10.415005
  H      20.712225    -11.508556     13.178867
  H      19.250752    -12.084436     12.529883
114
Coordinates from ORCA-job 01_xtb_cit_react E -175.328468388880
  C      16.440112    -11.086108     12.473755
  C      15.243738    -11.297572     13.351532
  C      14.125132    -11.829361     12.834832
  C      13.964025    -11.933921     11.397971
  C      14.866687    -11.444380     10.553127
  C      16.100228    -10.721897     11.015849
  C      13.049478    -12.438417     13.674288
  O      13.111157    -12.376257     14.920347
  O      12.162540    -13.077583     13.037214
  O      15.902982     -9.345673     10.809857
  O      17.198928    -12.325216     12.541018
  C      16.535303    -13.485086     12.195990
  C      16.464201    -13.818959     10.729052
  O      17.304838    -13.292966      9.972450
  O      15.572278    -14.621154     10.340470
  C      16.050369    -14.309183     13.119277
  H      17.126818    -10.332432     12.871395
  H      15.367327    -11.195199     14.418351
  H      13.062574    -12.408770     11.041047
  H      14.706202    -11.485483      9.488923
  H      16.954901    -11.044828     10.405898
  H      16.809705     -8.800457     11.089536
  H      15.591788    -15.237626     12.828951
  H      16.101688    -14.075104     14.168296
  O      12.998548    -15.323563     11.474278
  H      13.875992    -15.112275     11.120778
  H      12.710890    -14.521564     11.936353
  C      12.785000    -13.909001      5.224001
  C      13.426896    -12.550776      5.495941
  N      14.786732    -12.591158      5.999816
  C      15.184527    -12.990402      7.233627
  N      14.457513    -13.792029      7.989651
  N      16.374846    -12.604134      7.643655
  H      13.453745    -14.682279      4.845952
  H      11.993603    -13.774566      4.488881
  H      12.314812    -14.306967      6.122012
  H      13.471775    -11.990830      4.560158
  H      12.780047    -11.996936      6.189229
  H      15.392004    -11.885830      5.607662
  H      14.844920    -14.118471      8.896675
  H      13.674669    -14.297608      7.620095
  H      16.764653    -12.950832      8.565534
  H      16.782577    -11.761639      7.273985
  C       8.412999    -16.813004     15.233001
  C       9.867838    -17.141013     15.589144
  N      10.571808    -16.050769     16.229076
  C      10.971926    -14.928661     15.560760
  N      10.782837    -14.796610     14.270165
  N      11.521023    -13.928921     16.230278
  H       7.736528    -17.001581     16.066623
  H       8.086874    -17.435512     14.403492
  H       8.322269    -15.772477     14.935268
  H       9.912377    -18.001684     16.258600
  H      10.419108    -17.406287     14.681136
  H      10.517267    -15.986908     17.232330
  H      11.337316    -13.999112     13.747149
  H      10.472644    -15.574846     13.717254
  H      12.140131    -13.209833     15.675624
  H      11.732011    -14.053990     17.205596
  C      13.998001     -9.220000      7.724999
  O      15.195291     -9.892870      8.012706
  C      14.260479     -7.791281      7.245606
  H      13.329681     -9.174595      8.584877
  H      13.509713     -9.799023      6.931905
  H      15.576294     -9.503672      8.825910
  H      14.802602     -7.250460      8.017595
  H      14.868760     -7.798696      6.344125
  H      13.323908     -7.277869      7.042445
  C      14.518001     -6.670000     12.632999
  S      13.821080     -8.328941     12.930553
  H      14.324364     -6.427596     11.588086
  H      15.587137     -6.693925     12.814013
  H      14.023237     -5.966996     13.293846
  H      14.628622     -8.905943     12.027620
  C      20.972000     -6.019000     10.963999
  C      20.060306     -7.039411     11.649235
  C      18.751893     -7.438934     10.906379
  O      17.995074     -8.184983     11.606188
  O      18.537486     -7.065057      9.758208
  H      20.586780     -5.000259     11.007275
  H      21.080584     -6.289112      9.915822
  H      21.955599     -6.029426     11.433068
  H      20.609524     -7.979438     11.759987
  H      19.781025     -6.701939     12.651407
  C      19.312999    -20.521999      7.175001
  C      18.312698    -19.453982      7.522914
  C      17.136923    -19.332982      6.790161
  C      18.530775    -18.555509      8.557016
  C      16.213398    -18.351361      7.081257
  C      17.611519    -17.565782      8.861090
  C      16.436804    -17.452076      8.125531
  O      15.494061    -16.518118      8.359975
  H      19.761228    -20.307815      6.204785
  H      18.830505    -21.496520      7.114987
  H      20.105112    -20.568931      7.917921
  H      16.943812    -20.020254      5.977031
  H      19.438276    -18.624461      9.140579
  H      15.299848    -18.263256      6.512780
  H      17.815485    -16.879553      9.671033
  H      15.705707    -15.949603      9.135998
  C      19.522001    -11.465000      7.842998
  C      19.488992    -10.499936      9.024374
  N      19.525347    -11.234567     10.263040
  C      20.446581    -11.045833     11.231776
  O      21.432938    -10.339311     11.121587
  N      20.213720    -11.813720     12.358793
  H      19.317472    -10.958064      6.899981
  H      18.804597    -12.263562      7.995945
  H      20.509033    -11.919652      7.770836
  H      20.353942     -9.833866      9.018418
  H      18.586559     -9.878404      8.988237
  H      18.780051    -11.902031     10.415113
  H      20.717596    -11.505380     13.174792
  H      19.255623    -12.085908     12.530995
114
Coordinates from ORCA-job 01_xtb_cit_react E -175.328500856090
  C      16.439130    -11.087797     12.473777
  C      15.243469    -11.301008     13.351746
  C      14.124664    -11.832812     12.834431
  C      13.963658    -11.933851     11.397133
  C      14.866444    -11.444046     10.552727
  C      16.100333    -10.722159     11.015001
  C      13.049847    -12.444603     13.672477
  O      13.113711    -12.385494     14.918566
  O      12.162538    -13.082620     13.035329
  O      15.905267     -9.345779     10.807485
  O      17.199644    -12.325801     12.540204
  C      16.536763    -13.486077     12.194038
  C      16.466047    -13.820433     10.726886
  O      17.305405    -13.293879      9.969404
  O      15.574592    -14.623631     10.339798
  C      16.051866    -14.310931     13.116844
  H      17.125302    -10.334237     12.873035
  H      15.370426    -11.201455     14.418769
  H      13.062920    -12.408676     11.037966
  H      14.705286    -11.486937      9.488640
  H      16.954574    -11.046998     10.405581
  H      16.812024     -8.798697     11.089915
  H      15.593856    -15.239340     12.825626
  H      16.101326    -14.075297     14.165671
  O      13.001633    -15.326542     11.473176
  H      13.878999    -15.115267     11.119349
  H      12.713009    -14.525213     11.935576
  C      12.785000    -13.909001      5.224001
  C      13.427227    -12.550765      5.494642
  N      14.787637    -12.591482      5.997005
  C      15.184986    -12.989060      7.231548
  N      14.458201    -13.790625      7.987649
  N      16.375454    -12.603206      7.641002
  H      13.453745    -14.682279      4.845952
  H      11.993256    -13.775020      4.489119
  H      12.315082    -14.307300      6.121997
  H      13.471293    -11.991582      4.558265
  H      12.781526    -11.995643      6.188028
  H      15.392902    -11.886773      5.603787
  H      14.845716    -14.117286      8.894046
  H      13.674174    -14.295445      7.619589
  H      16.765790    -12.949561      8.562433
  H      16.783652    -11.762137      7.269211
  C       8.412999    -16.813004     15.233001
  C       9.866879    -17.146562     15.588146
  N      10.573798    -16.058379     16.227022
  C      10.973648    -14.936715     15.557867
  N      10.784010    -14.804271     14.267267
  N      11.523846    -13.937447     16.227203
  H       7.736528    -17.001581     16.066622
  H       8.084114    -17.434143     14.403006
  H       8.325082    -15.771949     14.936224
  H       9.909003    -18.007466     16.257623
  H      10.415773    -17.413360     14.679539
  H      10.518001    -15.993350     17.230303
  H      11.338699    -14.006443     13.745340
  H      10.475661    -15.582677     13.713573
  H      12.143702    -13.219249     15.672869
  H      11.734852    -14.062395     17.202538
  C      13.998001     -9.220000      7.724999
  O      15.194107     -9.894097      8.012979
  C      14.261672     -7.791122      7.246373
  H      13.329681     -9.174595      8.584877
  H      13.508876     -9.797759      6.931341
  H      15.574664     -9.505996      8.827246
  H      14.800623     -7.249709      8.020140
  H      14.873225     -7.798839      6.347153
  H      13.325785     -7.278004      7.039911
  C      14.518001     -6.670000     12.632999
  S      13.823256     -8.328865     12.931942
  H      14.324364     -6.427596     11.588086
  H      15.586840     -6.691664     12.815735
  H      14.020632     -5.966345     13.291336
  H      14.631501     -8.905346     12.028714
  C      20.972000     -6.019000     10.963999
  C      20.059614     -7.038605     11.649060
  C      18.752582     -7.438935     10.905116
  O      17.994037     -8.181325     11.607127
  O      18.539915     -7.069142      9.755337
  H      20.586780     -5.000259     11.007275
  H      21.080290     -6.288242      9.915425
  H      21.956191     -6.029643     11.432021
  H      20.609276     -7.977987     11.761508
  H      19.779377     -6.700207     12.650709
  C      19.312999    -20.521999      7.175001
  C      18.311432    -19.454467      7.521859
  C      17.135437    -19.335257      6.788784
  C      18.528656    -18.554732      8.555087
  C      16.211223    -18.353657      7.078192
  C      17.609030    -17.564640      8.856936
  C      16.434367    -17.452781      8.120810
  O      15.492050    -16.517596      8.353531
  H      19.761228    -20.307815      6.204785
  H      18.831641    -21.497244      7.115789
  H      20.105129    -20.567577      7.918201
  H      16.943116    -20.024416      5.977509
  H      19.436371    -18.622736      9.138328
  H      15.297827    -18.266079      6.509061
  H      17.811481    -16.877392      9.666392
  H      15.703521    -15.950154      9.130254
  C      19.522001    -11.465000      7.842998
  C      19.485466    -10.500184      9.024735
  N      19.523040    -11.234824     10.263486
  C      20.444003    -11.045074     11.232287
  O      21.428091    -10.335058     11.122343
  N      20.213869    -11.814502     12.359244
  H      19.317472    -10.958064      6.899981
  H      18.805656    -12.264569      7.995798
  H      20.510191    -11.917682      7.772111
  H      20.348280     -9.831218      9.019270
  H      18.580995     -9.881303      8.989744
  H      18.779384    -11.903975     10.414958
  H      20.718145    -11.504645     13.174622
  H      19.256541    -12.088773     12.532801
114
Coordinates from ORCA-job 01_xtb_cit_react E -175.328541139230
  C      16.440919    -11.092290     12.473033
  C      15.246417    -11.306309     13.351660
  C      14.127104    -11.837554     12.835036
  C      13.965473    -11.935915     11.397363
  C      14.868001    -11.445621     10.552801
  C      16.102780    -10.725307     11.014443
  C      13.053872    -12.452332     13.672671
  O      13.119935    -12.396944     14.918993
  O      12.165800    -13.088800     13.035599
  O      15.910424     -9.348396     10.806072
  O      17.202718    -12.329377     12.539284
  C      16.540314    -13.490138     12.192624
  C      16.469606    -13.824318     10.724577
  O      17.306985    -13.296840      9.965929
  O      15.578314    -14.628121     10.338910
  C      16.054271    -14.315161     13.114591
  H      17.126743    -10.338482     12.873020
  H      15.378145    -11.210607     14.418409
  H      13.066569    -12.411646     11.035099
  H      14.705260    -11.489761      9.489264
  H      16.956282    -11.051358     10.405267
  H      16.818267     -8.799324     11.091477
  H      15.596542    -15.243575     12.823485
  H      16.102335    -14.077639     14.163241
  O      13.009036    -15.331033     11.473640
  H      13.885955    -15.120097     11.118735
  H      12.720531    -14.530313     11.936337
  C      12.785000    -13.909001      5.224001
  C      13.428675    -12.551291      5.492946
  N      14.789747    -12.594039      5.993649
  C      15.187009    -12.989694      7.228935
  N      14.460784    -13.791614      7.984823
  N      16.377401    -12.602363      7.637956
  H      13.453745    -14.682279      4.845952
  H      11.992964    -13.775233      4.489349
  H      12.315330    -14.307279      6.122089
  H      13.472957    -11.993070      4.555907
  H      12.784342    -11.994358      6.186091
  H      15.395560    -11.890029      5.598743
  H      14.848024    -14.117832      8.890994
  H      13.675451    -14.295683      7.618340
  H      16.768418    -12.948711      8.559230
  H      16.785346    -11.761636      7.264471
  C       8.412999    -16.813004     15.233001
  C       9.866311    -17.152228     15.587141
  N      10.576705    -16.066886     16.226706
  C      10.977917    -14.945998     15.557415
  N      10.788611    -14.812903     14.266781
  N      11.530030    -13.947861     16.226720
  H       7.736528    -17.001581     16.066623
  H       8.081266    -17.431517     14.401979
  H       8.328663    -15.770659     14.938431
  H       9.904392    -18.013826     16.256090
  H      10.414132    -17.420263     14.678331
  H      10.519967    -16.002283     17.230147
  H      11.343700    -14.014765     13.745915
  H      10.480897    -15.590592     13.712074
  H      12.151493    -13.230137     15.672121
  H      11.740721    -14.073086     17.202039
  C      13.998001     -9.220000      7.724999
  O      15.192741     -9.896023      8.012559
  C      14.263926     -7.790808      7.248208
  H      13.329681     -9.174595      8.584877
  H      13.507711     -9.795703      6.930416
  H      15.573447     -9.510326      8.828521
  H      14.799163     -7.248794      8.024285
  H      14.879997     -7.798703      6.351942
  H      13.329094     -7.277882      7.036669
  C      14.518001     -6.670000     12.632999
  S      13.836389     -8.334939     12.931159
  H      14.324364     -6.427596     11.588086
  H      15.586856     -6.683438     12.819379
  H      14.013683     -5.970149     13.290830
  H      14.649038     -8.904632     12.025764
  C      20.972000     -6.019000     10.963999
  C      20.060185     -7.038489     11.649839
  C      18.754849     -7.442259     10.904710
  O      17.993339     -8.179187     11.609606
  O      18.546993     -7.079786      9.752072
  H      20.586780     -5.000259     11.007275
  H      21.078900     -6.287915      9.914977
  H      21.957616     -6.029763     11.429375
  H      20.611487     -7.976243     11.763739
  H      19.778322     -6.698933     12.650269
  C      19.312999    -20.521999      7.175001
  C      18.309760    -19.455578      7.520375
  C      17.133755    -19.338007      6.786822
  C      18.525469    -18.554999      8.553744
  C      16.208799    -18.356633      7.074490
  C      17.605530    -17.564394      8.853284
  C      16.431408    -17.453915      8.115797
  O      15.490113    -16.516833      8.345965
  H      19.761228    -20.307815      6.204785
  H      18.833261    -21.498227      7.116618
  H      20.104935    -20.565257      7.918638
  H      16.942239    -20.029227      5.977396
  H      19.431855    -18.624130      9.139965
  H      15.295676    -18.269856      6.504704
  H      17.806761    -16.876071      9.662290
  H      15.701576    -15.951841      9.124122
  C      19.522001    -11.465000      7.842998
  C      19.480213    -10.501458      9.025516
  N      19.520398    -11.236896     10.263852
  C      20.442057    -11.045928     11.231588
  O      21.423302    -10.331504     11.122572
  N      20.217519    -11.819811     12.357085
  H      19.317472    -10.958064      6.899981
  H      18.808124    -12.266775      7.995415
  H      20.512105    -11.913447      7.774100
  H      20.339189     -9.827873      9.021469
  H      18.572898     -9.887187      8.991136
  H      18.779140    -11.908214     10.415399
  H      20.723227    -11.508558     13.171077
  H      19.261079    -12.095516     12.533262
114
Coordinates from ORCA-job 01_xtb_cit_react E -175.328578277160
  C      16.441550    -11.093432     12.472981
  C      15.247974    -11.309629     13.352734
  C      14.128849    -11.839712     12.835956
  C      13.966676    -11.935884     11.398044
  C      14.868225    -11.445260     10.552641
  C      16.103062    -10.726570     11.012894
  C      13.056940    -12.457708     13.673009
  O      13.124993    -12.406034     14.919612
  O      12.168767    -13.092674     13.036072
  O      15.913518     -9.349808     10.799851
  O      17.206003    -12.328872     12.536124
  C      16.545426    -13.490724     12.189530
  C      16.473760    -13.825136     10.720893
  O      17.308983    -13.296630      9.961145
  O      15.583433    -14.630795     10.336644
  C      16.058804    -14.315684     13.110989
  H      17.126449    -10.338955     12.872634
  H      15.381907    -11.219112     14.419668
  H      13.069457    -12.412750     11.033253
  H      14.703880    -11.490020      9.488986
  H      16.956857    -11.054385     10.404352
  H      16.821185     -8.798852     11.089009
  H      15.601691    -15.244916     12.821741
  H      16.107501    -14.077315     14.159190
  O      13.018939    -15.335822     11.475276
  H      13.894866    -15.124380     11.118287
  H      12.730996    -14.535687     11.938190
  C      12.785000    -13.909001      5.224001
  C      13.430458    -12.551249      5.489825
  N      14.792013    -12.595425      5.989431
  C      15.190030    -12.988696      7.225276
  N      14.464174    -13.789734      7.982427
  N      16.380636    -12.601445      7.633033
  H      13.453745    -14.682279      4.845952
  H      11.991944    -13.776134      4.490251
  H      12.316597    -14.306235      6.123160
  H      13.475518    -11.994896      4.551724
  H      12.787455    -11.991819      6.182011
  H      15.399003    -11.894551      5.591455
  H      14.852356    -14.116588      8.887677
  H      13.676015    -14.290697      7.618778
  H      16.772427    -12.946182      8.554521
  H      16.788283    -11.761777      7.256483
  C       8.412999    -16.813004     15.233001
  C       9.865895    -17.156409     15.586035
  N      10.578963    -16.073429     16.226564
  C      10.981893    -14.953319     15.557358
  N      10.794094    -14.820154     14.266363
  N      11.534747    -13.955727     16.226489
  H       7.736528    -17.001581     16.066622
  H       8.079483    -17.428581     14.400787
  H       8.332250    -15.769471     14.941231
  H       9.900150    -18.018501     16.254828
  H      10.413517    -17.425769     14.677549
  H      10.520971    -16.010063     17.229774
  H      11.349462    -14.021788     13.746647
  H      10.487509    -15.597736     13.710848
  H      12.158887    -13.238718     15.671328
  H      11.743683    -14.080584     17.202157
  C      13.998001     -9.220000      7.724999
  O      15.191907     -9.897271      8.012637
  C      14.265661     -7.790885      7.249928
  H      13.329681     -9.174595      8.584877
  H      13.506720     -9.793550      6.929392
  H      15.570970     -9.512601      8.830327
  H      14.796737     -7.247426      8.027979
  H      14.886508     -7.798990      6.356644
  H      13.331372     -7.278994      7.032425
  C      14.518001     -6.670000     12.632999
  S      13.842753     -8.336237     12.932521
  H      14.324364     -6.427596     11.588086
  H      15.586614     -6.679306     12.821586
  H      14.010805     -5.972468     13.291358
  H      14.654341     -8.905374     12.025548
  C      20.972000     -6.019000     10.963999
  C      20.061083     -7.038559     11.650824
  C      18.756235     -7.443823     10.904541
  O      17.992078     -8.175921     11.612025
  O      18.552841     -7.087485      9.749501
  H      20.586780     -5.000259     11.007275
  H      21.076892     -6.288442      9.914723
  H      21.959144     -6.030086     11.426519
  H      20.613309     -7.975666     11.764325
  H      19.778609     -6.698695     12.650663
  C      19.312999    -20.521999      7.175001
  C      18.308002    -19.456793      7.518790
  C      17.133119    -19.339392      6.783172
  C      18.522472    -18.554330      8.551005
  C      16.207778    -18.357713      7.068257
  C      17.602540    -17.562970      8.847754
  C      16.429740    -17.453096      8.108173
  O      15.489968    -16.513960      8.336029
  H      19.761228    -20.307815      6.204785
  H      18.834979    -21.499186      7.117037
  H      20.104572    -20.562739      7.919362
  H      16.942673    -20.032123      5.974678
  H      19.428520    -18.622051      9.137292
  H      15.295966    -18.270479      6.495978
  H      17.801756    -16.872924      9.655886
  H      15.702110    -15.952783      9.116531
  C      19.522001    -11.465000      7.842998
  C      19.478143    -10.502121      9.026624
  N      19.519374    -11.238380     10.264458
  C      20.441102    -11.046386     11.231500
  O      21.420034    -10.328745     11.124077
  N      20.219522    -11.822785     12.356605
  H      19.317472    -10.958064      6.899981
  H      18.809500    -12.268291      7.995871
  H      20.513608    -11.911391      7.774454
  H      20.335812     -9.826334      9.023730
  H      18.568651     -9.890323      8.992519
  H      18.780226    -11.911739     10.415344
  H      20.725237    -11.509457     13.169764
  H      19.263653    -12.099593     12.533772
114
Coordinates from ORCA-job 01_xtb_cit_react E -175.328611469800
  C      16.444987    -11.095398     12.470798
  C      15.252220    -11.313497     13.350931
  C      14.131733    -11.843447     12.835159
  C      13.968561    -11.939389     11.397961
  C      14.869763    -11.447297     10.552111
  C      16.105671    -10.729859     11.011860
  C      13.060696    -12.463168     13.672725
  O      13.130116    -12.414023     14.919609
  O      12.172295    -13.097260     13.035937
  O      15.918729     -9.352957     10.796479
  O      17.210399    -12.330035     12.532586
  C      16.551246    -13.492972     12.187613
  C      16.478456    -13.827297     10.718499
  O      17.312409    -13.298070      9.957895
  O      15.587974    -14.633076     10.334640
  C      16.063163    -14.316444     13.109376
  H      17.129175    -10.340152     12.869193
  H      15.387708    -11.224956     14.418010
  H      13.072367    -12.416871     11.032310
  H      14.704243    -11.490960      9.488901
  H      16.959039    -11.058536     10.403281
  H      16.827741     -8.800714     11.086297
  H      15.607174    -15.246855     12.822686
  H      16.111515    -14.076945     14.157610
  O      13.028795    -15.340593     11.475714
  H      13.903820    -15.128220     11.117241
  H      12.741222    -14.540734     11.938738
  C      12.785000    -13.909001      5.224001
  C      13.432391    -12.551778      5.488098
  N      14.794183    -12.597844      5.987193
  C      15.193366    -12.989432      7.223225
  N      14.468130    -13.790256      7.981206
  N      16.383630    -12.600074      7.629927
  H      13.453745    -14.682279      4.845952
  H      11.991490    -13.776281      4.490745
  H      12.317304    -14.304840      6.124114
  H      13.478442    -11.996336      4.549530
  H      12.790337    -11.990974      6.179845
  H      15.402382    -11.898935      5.586843
  H      14.856566    -14.116727      8.886405
  H      13.678945    -14.290599      7.618311
  H      16.776863    -12.944119      8.551556
  H      16.790864    -11.761175      7.251729
  C       8.412999    -16.813004     15.233001
  C       9.864814    -17.160688     15.586454
  N      10.582076    -16.080283     16.227066
  C      10.987570    -14.960718     15.557800
  N      10.801095    -14.827784     14.266486
  N      11.542018    -13.963697     16.226368
  H       7.736528    -17.001581     16.066622
  H       8.078451    -17.425685     14.398816
  H       8.335820    -15.767980     14.944395
  H       9.895038    -18.022103     16.256902
  H      10.411775    -17.433568     14.679109
  H      10.523111    -16.016161     17.230537
  H      11.355631    -14.029198     13.747208
  H      10.493137    -15.604796     13.710855
  H      12.167325    -13.246324     15.670425
  H      11.749071    -14.088134     17.202432
  C      13.998001     -9.220000      7.724999
  O      15.191415     -9.898618      8.011524
  C      14.266938     -7.790675      7.251988
  H      13.329681     -9.174595      8.584877
  H      13.505910     -9.791304      6.928507
  H      15.569667     -9.516375      8.831113
  H      14.795655     -7.246604      8.031140
  H      14.890235     -7.797877      6.360167
  H      13.332630     -7.279881      7.031070
  C      14.518001     -6.670000     12.632999
  S      13.858838     -8.343779     12.931505
  H      14.324364     -6.427596     11.588086
  H      15.586792     -6.670926     12.824406
  H      14.004929     -5.978449     13.293403
  H      14.674594     -8.904036     12.021423
  C      20.972000     -6.019000     10.963999
  C      20.062712     -7.040095     11.651227
  C      18.759273     -7.448361     10.903014
  O      17.992316     -8.176648     11.611708
  O      18.561360     -7.098469      9.745286
  H      20.586780     -5.000259     11.007275
  H      21.074909     -6.289257      9.914708
  H      21.960169     -6.030016     11.424276
  H      20.616298     -7.976513     11.763918
  H      19.778522     -6.701069     12.650701
  C      19.312999    -20.521999      7.175001
  C      18.307233    -19.457406      7.518371
  C      17.132870    -19.339828      6.782282
  C      18.521191    -18.553812      8.549811
  C      16.207672    -18.357701      7.065777
  C      17.601316    -17.562060      8.845549
  C      16.429354    -17.451726      8.104730
  O      15.490795    -16.511081      8.330948
  H      19.761228    -20.307815      6.204785
  H      18.835745    -21.499604      7.116921
  H      20.104388    -20.561451      7.919728
  H      16.942502    -20.033166      5.974096
  H      19.426950    -18.620662      9.136436
  H      15.296042    -18.271371      6.493577
  H      17.799723    -16.871019      9.653182
  H      15.703035    -15.952715      9.113385
  C      19.522001    -11.465000      7.842998
  C      19.475386    -10.503311      9.027591
  N      19.519206    -11.240790     10.264566
  C      20.442045    -11.047697     11.230188
  O      21.419299    -10.327748     11.123471
  N      20.223686    -11.826874     12.354754
  H      19.317472    -10.958064      6.899981
  H      18.811749    -12.270565      7.995408
  H      20.515107    -11.908465      7.775024
  H      20.330508     -9.824695      9.025916
  H      18.563775     -9.895095      8.993005
  H      18.782173    -11.916346     10.416274
  H      20.729472    -11.512129     13.167493
  H      19.268065    -12.103835     12.533211
114
Coordinates from ORCA-job 01_xtb_cit_react E -175.328644951760
  C      16.445408    -11.093636     12.469297
  C      15.252748    -11.313961     13.349630
  C      14.132955    -11.844421     12.833641
  C      13.969247    -11.941902     11.397060
  C      14.868933    -11.447969     10.550730
  C      16.104764    -10.730596     11.009699
  C      13.062528    -12.465224     13.671271
  O      13.132636    -12.416605     14.918375
  O      12.174116    -13.098937     13.034746
  O      15.919332     -9.354393     10.790346
  O      17.213525    -12.326954     12.527837
  C      16.555994    -13.491077     12.184452
  C      16.481958    -13.826121     10.715929
  O      17.315196    -13.296837      9.954632
  O      15.591339    -14.632025     10.332395
  C      16.066853    -14.312618     13.107236
  H      17.128413    -10.337010     12.866442
  H      15.386234    -11.224988     14.416973
  H      13.072571    -12.419632     11.032985
  H      14.703133    -11.490445      9.487559
  H      16.958345    -11.060369     10.401231
  H      16.827428     -8.801097     11.081557
  H      15.611773    -15.244385     12.823350
  H      16.115975    -14.072729     14.155115
  O      13.037895    -15.343750     11.476935
  H      13.911802    -15.129933     11.116759
  H      12.750503    -14.543968     11.940219
  C      12.785000    -13.909001      5.224001
  C      13.433762    -12.551899      5.485964
  N      14.795455    -12.598847      5.985133
  C      15.196107    -12.989463      7.221011
  N      14.471373    -13.789180      7.980755
  N      16.386489    -12.599240      7.626265
  H      13.453745    -14.682279      4.845952
  H      11.990636    -13.776841      4.491666
  H      12.318717    -14.302974      6.125616
  H      13.480401    -11.997673      4.546779
  H      12.792412    -11.989650      6.177120
  H      15.405059    -11.903211      5.581954
  H      14.860824    -14.115640      8.885872
  H      13.680039    -14.287097      7.619272
  H      16.780741    -12.941427      8.548113
  H      16.794013    -11.761043      7.246025
  C       8.412999    -16.813004     15.233001
  C       9.864289    -17.162152     15.587488
  N      10.583566    -16.082395     16.227733
  C      10.991785    -14.964020     15.557998
  N      10.807659    -14.833373     14.265962
  N      11.545971    -13.966577     16.225483
  H       7.736528    -17.001581     16.066623
  H       8.078990    -17.423556     14.397731
  H       8.337602    -15.767362     14.946521
  H       9.892567    -18.022866     16.259241
  H      10.412403    -17.437464     14.681450
  H      10.523255    -16.016721     17.230767
  H      11.359982    -14.034536     13.746747
  H      10.498686    -15.610677     13.711203
  H      12.172300    -13.248860     15.668716
  H      11.749334    -14.088744     17.202566
  C      13.998001     -9.220000      7.724999
  O      15.191393     -9.899266      8.010672
  C      14.267098     -7.789948      7.253825
  H      13.329681     -9.174595      8.584877
  H      13.505245     -9.789447      6.927641
  H      15.566978     -9.518872      8.831997
  H      14.793969     -7.245538      8.034069
  H      14.891603     -7.795398      6.362811
  H      13.332128     -7.280607      7.031014
  C      14.518001     -6.670000     12.632999
  S      13.862554     -8.345524     12.928845
  H      14.324364     -6.427596     11.588086
  H      15.586575     -6.669331     12.824886
  H      14.004282     -5.981015     13.295450
  H      14.678086     -8.904483     12.018071
  C      20.972000     -6.019000     10.963999
  C      20.063004     -7.041036     11.650407
  C      18.760182     -7.448977     10.900469
  O      17.989963     -8.173559     11.609384
  O      18.566364     -7.103524      9.740742
  H      20.586780     -5.000259     11.007275
  H      21.074659     -6.290223      9.914828
  H      21.959961     -6.029962     11.424948
  H      20.616281     -7.978164     11.761192
  H      19.778452     -6.703971     12.650291
  C      19.312999    -20.521999      7.175001
  C      18.307355    -19.457327      7.517484
  C      17.133901    -19.339143      6.780533
  C      18.520935    -18.553502      8.548844
  C      16.209135    -18.356299      7.062542
  C      17.601203    -17.561698      8.843778
  C      16.430317    -17.450109      8.101537
  O      15.493114    -16.508149      8.327021
  H      19.761228    -20.307815      6.204785
  H      18.835909    -21.499520      7.116772
  H      20.104011    -20.560898      7.919911
  H      16.943841    -20.031903      5.971155
  H      19.425222    -18.621249      9.138205
  H      15.298136    -18.270272      6.489755
  H      17.798280    -16.869192      9.650319
  H      15.705604    -15.952459      9.111457
  C      19.522001    -11.465000      7.842998
  C      19.475042    -10.503499      9.027586
  N      19.519859    -11.240930     10.264473
  C      20.443490    -11.046966     11.229239
  O      21.420227    -10.326499     11.122584
  N      20.226197    -11.826839     12.353791
  H      19.317472    -10.958064      6.899981
  H      18.813011    -12.271454      7.995576
  H      20.515323    -11.907600      7.774510
  H      20.329626     -9.824406      9.025938
  H      18.562661     -9.896562      8.991684
  H      18.784385    -11.918397     10.416717
  H      20.730656    -11.510637     13.166632
  H      19.270292    -12.103344     12.531892
114
Coordinates from ORCA-job 01_xtb_cit_react E -175.328676321920
  C      16.446220    -11.090497     12.467014
  C      15.254473    -11.313813     13.347425
  C      14.135391    -11.846209     12.831912
  C      13.970623    -11.945192     11.395835
  C      14.868290    -11.448401     10.549135
  C      16.104092    -10.729868     11.007242
  C      13.065526    -12.467868     13.670092
  O      13.136718    -12.419781     14.917388
  O      12.176575    -13.101314     13.033747
  O      15.919622     -9.354166     10.784426
  O      17.217680    -12.322241     12.522542
  C      16.561378    -13.487507     12.180887
  C      16.486628    -13.823446     10.713203
  O      17.319613    -13.294242      9.951206
  O      15.595681    -14.629197     10.329700
  C      16.071774    -14.307049     13.105106
  H      17.128011    -10.332418     12.863192
  H      15.385256    -11.221754     14.414956
  H      13.072080    -12.422299     11.035355
  H      14.702562    -11.488798      9.485981
  H      16.957305    -11.060910     10.398683
  H      16.827081     -8.799861     11.075681
  H      15.618334    -15.240342     12.823289
  H      16.120462    -14.066871     14.153088
  O      13.048115    -15.347350     11.478835
  H      13.920736    -15.131271     11.116468
  H      12.760449    -14.547446     11.942341
  C      12.785000    -13.909001      5.224001
  C      13.434427    -12.551833      5.484455
  N      14.796002    -12.598313      5.983711
  C      15.198309    -12.987800      7.219406
  N      14.474721    -13.786854      7.981177
  N      16.388658    -12.596584      7.622812
  H      13.453745    -14.682279      4.845952
  H      11.989939    -13.777253      4.492500
  H      12.320016    -14.301376      6.126975
  H      13.480684    -11.998472      4.544780
  H      12.793745    -11.988757      6.175583
  H      15.406376    -11.904380      5.578546
  H      14.865526    -14.113117      8.886013
  H      13.681821    -14.283442      7.620642
  H      16.784441    -12.937237      8.544308
  H      16.796246    -11.759728      7.240857
  C       8.412999    -16.813004     15.233001
  C       9.863182    -17.164608     15.588904
  N      10.585398    -16.085917     16.227918
  C      10.996901    -14.968610     15.557618
  N      10.814965    -14.840526     14.264979
  N      11.551510    -13.970899     16.223866
  H       7.736528    -17.001581     16.066623
  H       8.079064    -17.422038     14.396671
  H       8.339135    -15.766773     14.947859
  H       9.889687    -18.024269     16.261725
  H      10.411886    -17.442627     14.683918
  H      10.523106    -16.016876     17.230647
  H      11.364635    -14.041397     13.745928
  H      10.504451    -15.618163     13.711493
  H      12.178592    -13.252722     15.666902
  H      11.751116    -14.090977     17.202080
  C      13.998001     -9.220000      7.724999
  O      15.191470     -9.899237      8.009995
  C      14.266097     -7.789306      7.254799
  H      13.329681     -9.174595      8.584877
  H      13.504429     -9.788032      6.927271
  H      15.563872     -9.520771      8.833267
  H      14.791887     -7.244681      8.035435
  H      14.890390     -7.793104      6.363752
  H      13.329888     -7.281761      7.032399
  C      14.518001     -6.670000     12.632999
  S      13.866922     -8.347715     12.926195
  H      14.324364     -6.427596     11.588086
  H      15.586396     -6.667047     12.824936
  H      14.002394     -5.983515     13.296001
  H      14.683441     -8.902118     12.014063
  C      20.972000     -6.019000     10.963999
  C      20.062714     -7.042011     11.648702
  C      18.761383     -7.449212     10.896376
  O      17.986998     -8.170484     11.604377
  O      18.571951     -7.107666      9.734590
  H      20.586780     -5.000259     11.007275
  H      21.075388     -6.290690      9.915042
  H      21.958866     -6.029682     11.427111
  H      20.615651     -7.980104     11.758206
  H      19.777277     -6.707162     12.649340
  C      19.312999    -20.521999      7.175001
  C      18.308410    -19.456150      7.517345
  C      17.136543    -19.335563      6.778301
  C      18.522135    -18.552818      8.548725
  C      16.212704    -18.351295      7.059081
  C      17.603097    -17.560430      8.842707
  C      16.433485    -17.446235      8.098898
  O      15.498002    -16.502549      8.323897
  H      19.761228    -20.307815      6.204785
  H      18.834828    -21.498841      7.116197
  H      20.103879    -20.562183      7.919877
  H      16.946278    -20.027122      5.967927
  H      19.426748    -18.619226      9.136623
  H      15.303264    -18.263453      6.483842
  H      17.798689    -16.867107      9.648763
  H      15.710198    -15.949257      9.110472
  C      19.522001    -11.465000      7.842998
  C      19.475933    -10.502609      9.027043
  N      19.521780    -11.239091     10.264360
  C      20.445811    -11.043533     11.228566
  O      21.422129    -10.322884     11.120579
  N      20.229332    -11.822747     12.353586
  H      19.317472    -10.958064      6.899981
  H      18.813396    -12.271716      7.995821
  H      20.514984    -11.908400      7.773475
  H      20.330750     -9.823796      9.024156
  H      18.563344     -9.895977      8.990070
  H      18.787879    -11.918646     10.417509
  H      20.731748    -11.504426     13.166986
  H      19.273205    -12.099036     12.530879
114
Coordinates from ORCA-job 01_xtb_cit_react E -175.328697656940
  C      16.445668    -11.088848     12.465398
  C      15.254775    -11.314676     13.346264
  C      14.136669    -11.849209     12.830589
  C      13.971019    -11.948079     11.394670
  C      14.866918    -11.448600     10.547981
  C      16.102884    -10.729128     11.005481
  C      13.067363    -12.471423     13.669018
  O      13.139779    -12.423948     14.916308
  O      12.177764    -13.104405     13.032880
  O      15.918901     -9.353778     10.780846
  O      17.220577    -12.318934     12.518480
  C      16.564950    -13.485028     12.177781
  C      16.490205    -13.821730     10.710746
  O      17.323321    -13.293244      9.948229
  O      15.598464    -14.626675     10.327374
  C      16.076437    -14.304169     13.103043
  H      17.126285    -10.329715     12.861974
  H      15.383098    -11.219666     14.413757
  H      13.070530    -12.424310     11.037283
  H      14.701537    -11.486946      9.484739
  H      16.955338    -11.061763     10.396765
  H      16.825807     -8.798665     11.072437
  H      15.623503    -15.238091     12.821606
  H      16.125617    -14.064163     14.150814
  O      13.054709    -15.350144     11.479008
  H      13.926289    -15.132407     11.115352
  H      12.766228    -14.550298     11.942819
  C      12.785000    -13.909001      5.224001
  C      13.434221    -12.551658      5.483899
  N      14.795842    -12.597408      5.982492
  C      15.199095    -12.986566      7.217916
  N      14.476375    -13.784972      7.981015
  N      16.389748    -12.594453      7.620026
  H      13.453745    -14.682279      4.845952
  H      11.989562    -13.777459      4.492893
  H      12.320751    -14.301076      6.127573
  H      13.479294    -11.998389      4.544089
  H      12.794155    -11.988547      6.175633
  H      15.406131    -11.904414      5.576330
  H      14.868257    -14.110601      8.885748
  H      13.682428    -14.280495      7.621394
  H      16.786564    -12.934502      8.540838
  H      16.798131    -11.758205      7.236941
  C       8.412999    -16.813004     15.233001
  C       9.861991    -17.168186     15.589425
  N      10.586845    -16.090419     16.227249
  C      11.000700    -14.974201     15.556245
  N      10.820027    -14.848099     14.263267
  N      11.555914    -13.976575     16.221696
  H       7.736528    -17.001581     16.066623
  H       8.078006    -17.420397     14.396051
  H       8.340868    -15.766819     14.949008
  H       9.887486    -18.027293     16.262861
  H      10.410131    -17.448152     14.684667
  H      10.523596    -16.019062     17.229630
  H      11.367253    -14.048383     13.744591
  H      10.508834    -15.626005     13.710614
  H      12.183154    -13.257851     15.665027
  H      11.752706    -14.094991     17.200685
  C      13.998001     -9.220000      7.724999
  O      15.191247     -9.898946      8.009842
  C      14.264885     -7.788720      7.255067
  H      13.329681     -9.174595      8.584877
  H      13.503534     -9.787285      6.927301
  H      15.560934     -9.522741      8.835370
  H      14.790664     -7.244196      8.035802
  H      14.888480     -7.791722      6.363697
  H      13.327597     -7.282094      7.034370
  C      14.518001     -6.670000     12.632999
  S      13.866027     -8.347918     12.924008
  H      14.324364     -6.427596     11.588086
  H      15.586027     -6.668118     12.825049
  H      14.001776     -5.982895     13.294833
  H      14.683709     -8.900149     12.011722
  C      20.972000     -6.019000     10.963999
  C      20.061726     -7.042462     11.646506
  C      18.761615     -7.448608     10.892677
  O      17.984788     -8.166997     11.600979
  O      18.574449     -7.110066      9.729537
  H      20.586780     -5.000259     11.007275
  H      21.077492     -6.290139      9.915299
  H      21.957291     -6.029596     11.429995
  H      20.614438     -7.980921     11.755432
  H      19.775895     -6.709378     12.647835
  C      19.312999    -20.521999      7.175001
  C      18.309710    -19.454852      7.516792
  C      17.138863    -19.333246      6.776585
  C      18.522994    -18.553215      8.549781
  C      16.215605    -18.348076      7.056545
  C      17.604378    -17.560342      8.842751
  C      16.435755    -17.444365      8.097495
  O      15.501736    -16.499124      8.321600
  H      19.761228    -20.307815      6.204785
  H      18.833489    -21.498108      7.116089
  H      20.103787    -20.563618      7.919720
  H      16.949011    -20.023592      5.965094
  H      19.425899    -18.622109      9.140958
  H      15.306926    -18.259828      6.480601
  H      17.798629    -16.866173      9.648254
  H      15.713158    -15.946874      9.109255
  C      19.522001    -11.465000      7.842998
  C      19.476147    -10.501928      9.026076
  N      19.523282    -11.237225     10.264005
  C      20.447231    -11.039782     11.228084
  O      21.422547    -10.317935     11.118691
  N      20.231334    -11.818051     12.353897
  H      19.317472    -10.958064      6.899981
  H      18.813553    -12.271639      7.995851
  H      20.514554    -11.908846      7.773243
  H      20.330725     -9.822935      9.021610
  H      18.563625     -9.895446      8.988766
  H      18.791169    -11.918754     10.417850
  H      20.731782    -11.498093     13.167863
  H      19.275142    -12.094976     12.530541
114
Coordinates from ORCA-job 01_xtb_cit_react E -175.328714919430
  C      16.446435    -11.088880     12.463951
  C      15.256816    -11.316107     13.345212
  C      14.139312    -11.852581     12.830339
  C      13.972601    -11.950810     11.394259
  C      14.866661    -11.449133     10.547411
  C      16.102908    -10.728641     11.004088
  C      13.071251    -12.475818     13.669126
  O      13.145034    -12.429704     14.916370
  O      12.180781    -13.108194     13.033210
  O      15.918593     -9.353298     10.779009
  O      17.224200    -12.317536     12.515010
  C      16.568350    -13.483840     12.174327
  C      16.494038    -13.820399     10.707441
  O      17.327183    -13.292155      9.944841
  O      15.601688    -14.624563     10.323774
  C      16.081019    -14.303547     13.099719
  H      17.126654    -10.329136     12.860994
  H      15.384114    -11.217893     14.412614
  H      13.070922    -12.426802     11.039068
  H      14.700929    -11.485279      9.484143
  H      16.954398    -11.062444     10.394805
  H      16.825152     -8.797627     11.070711
  H      15.628058    -15.237172     12.817241
  H      16.129716    -14.063935     14.147982
  O      13.061195    -15.353046     11.478859
  H      13.931801    -15.133851     11.113518
  H      12.772384    -14.553378     11.942742
  C      12.785000    -13.909001      5.224001
  C      13.433386    -12.551068      5.483219
  N      14.795375    -12.595247      5.980768
  C      15.199221    -12.983700      7.216127
  N      14.477248    -13.781858      7.980131
  N      16.390209    -12.592046      7.617390
  H      13.453745    -14.682279      4.845952
  H      11.989173    -13.778016      4.493231
  H      12.321345    -14.301464      6.127726
  H      13.476831    -11.997951      4.543210
  H      12.793790    -11.988120      6.175624
  H      15.405091    -11.901398      5.574367
  H      14.870500    -14.107297      8.884317
  H      13.682956    -14.277339      7.621225
  H      16.787712    -12.932167      8.537304
  H      16.798635    -11.756433      7.233483
  C       8.412999    -16.813004     15.233001
  C       9.861401    -17.171605     15.588953
  N      10.588534    -16.095320     16.226328
  C      11.004971    -14.980482     15.554770
  N      10.825552    -14.855741     14.261535
  N      11.561274    -13.983494     16.219771
  H       7.736528    -17.001581     16.066623
  H       8.076047    -17.419289     14.395809
  H       8.342016    -15.766430     14.949322
  H       9.885885    -18.030897     16.261774
  H      10.408839    -17.452095     14.683765
  H      10.524302    -16.022809     17.228590
  H      11.371452    -14.055454     13.743277
  H      10.513662    -15.633449     13.709487
  H      12.189206    -13.264663     15.663765
  H      11.756265    -14.101208     17.199253
  C      13.998001     -9.220000      7.724999
  O      15.191305     -9.898212      8.010840
  C      14.264000     -7.788438      7.253990
  H      13.329681     -9.174595      8.584877
  H      13.502756     -9.787780      6.927774
  H      15.558690     -9.523497      8.838248
  H      14.789432     -7.243711      8.034758
  H      14.887866     -7.791531      6.362994
  H      13.326510     -7.282439      7.033777
  C      14.518001     -6.670000     12.632998
  S      13.867686     -8.348675     12.922272
  H      14.324364     -6.427596     11.588086
  H      15.585555     -6.665843     12.825729
  H      13.998728     -5.983925     13.293318
  H      14.686753     -8.897628     12.009428
  C      20.972000     -6.019000     10.963999
  C      20.060444     -7.042395     11.645060
  C      18.761346     -7.448398     10.890396
  O      17.981681     -8.164144     11.598661
  O      18.576670     -7.112335      9.726136
  H      20.586780     -5.000259     11.007275
  H      21.079683     -6.289210      9.915240
  H      21.956188     -6.029536     11.432360
  H      20.613476     -7.980517     11.754320
  H      19.774258     -6.709660     12.646426
  C      19.312999    -20.521999      7.175001
  C      18.310375    -19.453857      7.516337
  C      17.141130    -19.330432      6.773664
  C      18.522988    -18.553670      8.550520
  C      16.218450    -18.344149      7.052357
  C      17.604928    -17.559814      8.841758
  C      16.437879    -17.441807      8.094200
  O      15.505284    -16.494809      8.317108
  H      19.761228    -20.307815      6.204785
  H      18.832515    -21.497601      7.116073
  H      20.103741    -20.564863      7.919594
  H      16.952047    -20.019793      5.961650
  H      19.425110    -18.623570      9.142466
  H      15.311704    -18.253497      6.473190
  H      17.797857    -16.865666      9.647665
  H      15.716068    -15.943664      9.105905
  C      19.522001    -11.465000      7.842998
  C      19.477377    -10.500844      9.025271
  N      19.525664    -11.235019     10.263907
  C      20.449058    -11.035977     11.228284
  O      21.423303    -10.312527     11.118485
  N      20.234374    -11.814663     12.353830
  H      19.317472    -10.958064      6.899981
  H      18.813034    -12.271094      7.996023
  H      20.514032    -11.909904      7.772866
  H      20.332271     -9.822127      9.018940
  H      18.565417     -9.893503      8.988450
  H      18.795171    -11.918204     10.418045
  H      20.733349    -11.493532     13.168328
  H      19.278338    -12.092318     12.529672
114
Coordinates from ORCA-job 01_xtb_cit_react E -175.328729464560
  C      16.446746    -11.090502     12.462968
  C      15.258145    -11.318427     13.344862
  C      14.140777    -11.855812     12.830488
  C      13.973149    -11.952528     11.394119
  C      14.866314    -11.449743     10.547149
  C      16.103153    -10.729334     11.003310
  C      13.073397    -12.479283     13.669822
  O      13.148033    -12.434321     14.917070
  O      12.182433    -13.111156     13.034115
  O      15.918943     -9.353894     10.778460
  O      17.226903    -12.317803     12.512557
  C      16.571289    -13.484473     12.171833
  C      16.497050    -13.820711     10.704659
  O      17.330510    -13.293154      9.942159
  O      15.603717    -14.623758     10.320839
  C      16.086964    -14.306141     13.097166
  H      17.126512    -10.330422     12.860655
  H      15.384954    -11.219066     14.411917
  H      13.071133    -12.428417     11.039408
  H      14.700013    -11.483533      9.483838
  H      16.953674    -11.064536     10.393649
  H      16.826402     -8.797961     11.069647
  H      15.633333    -15.239049     12.813378
  H      16.136950    -14.067317     14.145472
  O      13.064906    -15.355579     11.478173
  H      13.934688    -15.135657     11.111675
  H      12.775619    -14.555912     11.941830
  C      12.785000    -13.909001      5.224001
  C      13.432248    -12.550705      5.483661
  N      14.794801    -12.593755      5.979502
  C      15.198784    -12.982178      7.214729
  N      14.477273    -13.780437      7.978747
  N      16.390217    -12.590204      7.615622
  H      13.453745    -14.682279      4.845952
  H      11.989246    -13.778159      4.493045
  H      12.321172    -14.302642      6.127166
  H      13.473870    -11.996771      4.544014
  H      12.793117    -11.988990      6.177382
  H      15.403131    -11.898517      5.573819
  H      14.871336    -14.105003      8.882753
  H      13.683001    -14.276201      7.620394
  H      16.788133    -12.931371      8.534632
  H      16.798883    -11.754536      7.231927
  C       8.412999    -16.813004     15.233001
  C       9.860683    -17.175192     15.587401
  N      10.589745    -16.100464     16.224877
  C      11.007153    -14.985943     15.553270
  N      10.828036    -14.861186     14.260073
  N      11.564544    -13.989563     16.218467
  H       7.736528    -17.001581     16.066622
  H       8.073721    -17.417778     14.395524
  H       8.343711    -15.766392     14.950166
  H       9.884207    -18.034859     16.259582
  H      10.406334    -17.455849     14.681307
  H      10.525836    -16.028368     17.227306
  H      11.373396    -14.060253     13.742377
  H      10.516897    -15.639018     13.707580
  H      12.192776    -13.270364     15.663291
  H      11.758890    -14.107325     17.198075
  C      13.998001     -9.220000      7.724999
  O      15.191109     -9.897829      8.011501
  C      14.263704     -7.788930      7.252655
  H      13.329681     -9.174595      8.584877
  H      13.501588     -9.788234      6.928675
  H      15.557070     -9.525030      8.841078
  H      14.790147     -7.244132      8.032732
  H      14.887289     -7.793405      6.361443
  H      13.326322     -7.282450      7.033515
  C      14.518001     -6.670000     12.632999
  S      13.868602     -8.349317     12.922116
  H      14.324364     -6.427596     11.588086
  H      15.585342     -6.665499     12.826791
  H      13.996948     -5.983506     13.291811
  H      14.689346     -8.896212     12.008613
  C      20.972000     -6.019000     10.963999
  C      20.059885     -7.042645     11.643702
  C      18.761568     -7.449441     10.888522
  O      17.981619     -8.163764     11.597859
  O      18.577833     -7.114947      9.723651
  H      20.586780     -5.000259     11.007275
  H      21.081983     -6.287985      9.915358
  H      21.955338     -6.029762     11.433823
  H      20.613911     -7.979860     11.753874
  H      19.772970     -6.709467     12.644834
  C      19.312999    -20.521999      7.175001
  C      18.310775    -19.453381      7.516169
  C      17.142923    -19.328736      6.771435
  C      18.522460    -18.554545      8.551774
  C      16.220442    -18.341957      7.049271
  C      17.604823    -17.559734      8.841557
  C      16.439036    -17.440609      8.092074
  O      15.507583    -16.492120      8.313321
  H      19.761228    -20.307815      6.204785
  H      18.831870    -21.497341      7.116215
  H      20.103793    -20.565569      7.919526
  H      16.954957    -20.017485      5.958969
  H      19.423740    -18.625816      9.144724
  H      15.314690    -18.250390      6.468798
  H      17.796658    -16.865634      9.647897
  H      15.717410    -15.941407      9.102608
  C      19.522001    -11.465000      7.842998
  C      19.477845    -10.500421      9.024670
  N      19.527913    -11.234012     10.263553
  C      20.450350    -11.032734     11.228294
  O      21.422630    -10.306560     11.118627
  N      20.236907    -11.811771     12.353941
  H      19.317472    -10.958064      6.899981
  H      18.812828    -12.270947      7.995949
  H      20.514090    -11.909899      7.773198
  H      20.332381     -9.821147      9.016906
  H      18.566092     -9.892796      8.988889
  H      18.799295    -11.918929     10.417884
  H      20.735144    -11.489965     13.168655
  H      19.281254    -12.090711     12.529596
114
Coordinates from ORCA-job 01_xtb_cit_react E -175.328742650310
  C      16.448490    -11.093444     12.462486
  C      15.260910    -11.322239     13.345132
  C      14.142945    -11.859634     12.831561
  C      13.974106    -11.954437     11.395188
  C      14.866508    -11.451008     10.547720
  C      16.103868    -10.730875     11.003275
  C      13.076209    -12.483158     13.671357
  O      13.151756    -12.439408     14.918567
  O      12.184691    -13.114362     13.036117
  O      15.919188     -9.355237     10.779425
  O      17.230247    -12.319440     12.510334
  C      16.574985    -13.486342     12.169547
  C      16.499779    -13.821467     10.701896
  O      17.333272    -13.294042      9.939637
  O      15.605374    -14.623471     10.317858
  C      16.093609    -14.310196     13.094439
  H      17.127959    -10.333007     12.860216
  H      15.388312    -11.222814     14.412166
  H      13.072575    -12.430801     11.040019
  H      14.698708    -11.482124      9.484345
  H      16.953716    -11.066572     10.392767
  H      16.827440     -8.799654     11.069697
  H      15.639091    -15.242166     12.809257
  H      16.144853    -14.072382     14.143014
  O      13.067558    -15.358207     11.477415
  H      13.936785    -15.137844     11.109930
  H      12.778326    -14.558547     11.940617
  C      12.785000    -13.909001      5.224001
  C      13.431004    -12.550049      5.483804
  N      14.794117    -12.591812      5.978410
  C      15.197809    -12.979956      7.213794
  N      14.476046    -13.777902      7.977913
  N      16.389753    -12.589455      7.614587
  H      13.453745    -14.682279      4.845952
  H      11.989197    -13.778686      4.492891
  H      12.320998    -14.303694      6.126634
  H      13.471267    -11.995599      4.544422
  H      12.792010    -11.989359      6.178382
  H      15.401406    -11.895085      5.573345
  H      14.871344    -14.102453      8.881412
  H      13.682071    -14.274243      7.620111
  H      16.787741    -12.931612      8.532782
  H      16.797975    -11.753421      7.231106
  C       8.412999    -16.813004     15.233001
  C       9.860497    -17.178422     15.585638
  N      10.591075    -16.105353     16.224037
  C      11.009560    -14.991282     15.552704
  N      10.830562    -14.865794     14.259596
  N      11.568351    -13.996086     16.218248
  H       7.736528    -17.001581     16.066622
  H       8.071434    -17.416169     14.395015
  H       8.345299    -15.765917     14.951320
  H       9.882950    -18.038959     16.256873
  H      10.404636    -17.458880     14.678620
  H      10.527966    -16.034991     17.226580
  H      11.376140    -14.064460     13.742093
  H      10.518740    -15.642786     13.706732
  H      12.197053    -13.276825     15.663704
  H      11.762703    -14.114455     17.197734
  C      13.998001     -9.220000      7.724999
  O      15.191468     -9.897003      8.012943
  C      14.263562     -7.789655      7.250290
  H      13.329681     -9.174595      8.584877
  H      13.501045     -9.789998      6.929885
  H      15.556075     -9.525162      8.844017
  H      14.790935     -7.244293      8.029398
  H      14.887132     -7.795921      6.359059
  H      13.326843     -7.282459      7.030802
  C      14.518001     -6.670000     12.632998
  S      13.871575     -8.350134     12.922225
  H      14.324364     -6.427596     11.588086
  H      15.585044     -6.662197     12.827935
  H      13.994166     -5.985247     13.291498
  H      14.693101     -8.895657     12.008392
  C      20.972000     -6.019000     10.963999
  C      20.059684     -7.043087     11.643142
  C      18.761655     -7.451474     10.888025
  O      17.981506     -8.165497     11.597879
  O      18.578287     -7.117966      9.723022
  H      20.586780     -5.000259     11.007275
  H      21.083545     -6.286944      9.915245
  H      21.955232     -6.029920     11.434185
  H      20.614840     -7.979193     11.753788
  H      19.772332     -6.709216     12.643812
  C      19.312999    -20.521999      7.175001
  C      18.310626    -19.453422      7.515628
  C      17.144275    -19.327768      6.768800
  C      18.520851    -18.555748      8.552698
  C      16.221917    -18.340706      7.045549
  C      17.603444    -17.560187      8.841175
  C      16.439470    -17.439995      8.089098
  O      15.508763    -16.490402      8.308788
  H      19.761228    -20.307815      6.204785
  H      18.831949    -21.497449      7.116503
  H      20.103754    -20.565314      7.919592
  H      16.957857    -20.016058      5.955653
  H      19.420205    -18.629675      9.148662
  H      15.317435    -18.247969      6.463287
  H      17.794326    -16.866693      9.648353
  H      15.718137    -15.940422      9.098752
  C      19.522001    -11.465000      7.842998
  C      19.479858    -10.499925      9.024477
  N      19.531325    -11.233123     10.263573
  C      20.452612    -11.029983     11.228806
  O      21.423467    -10.301712     11.120088
  N      20.239882    -11.809490     12.354413
  H      19.317472    -10.958064      6.899981
  H      18.812200    -12.270443      7.996320
  H      20.513981    -11.910512      7.772883
  H      20.334987     -9.821160      9.015240
  H      18.568849     -9.890927      8.990062
  H      18.804146    -11.919319     10.417914
  H      20.737545    -11.487034     13.169247
  H      19.284624    -12.089770     12.529592
114
Coordinates from ORCA-job 01_xtb_cit_react E -175.328755110830
  C      16.449697    -11.096536     12.461722
  C      15.262593    -11.325456     13.344744
  C      14.144083    -11.861565     12.831770
  C      13.974231    -11.955565     11.395486
  C      14.866468    -11.452554     10.547627
  C      16.104367    -10.733417     11.002776
  C      13.077459    -12.484389     13.672005
  O      13.152943    -12.440395     14.919234
  O      12.185830    -13.115433     13.037097
  O      15.919842     -9.357705     10.779788
  O      17.232924    -12.321381     12.508347
  C      16.578610    -13.488830     12.167672
  C      16.501727    -13.822904     10.699619
  O      17.335577    -13.295979      9.937661
  O      15.605937    -14.623353     10.315477
  C      16.100715    -14.314969     13.092433
  H      17.128714    -10.335492     12.858968
  H      15.390688    -11.226797     14.411540
  H      13.073469    -12.432231     11.039195
  H      14.696987    -11.481375      9.484483
  H      16.953644    -11.069548     10.391490
  H      16.829704     -8.802463     11.068358
  H      15.645866    -15.246357     12.806536
  H      16.153814    -14.077871     14.141054
  O      13.068750    -15.359814     11.477749
  H      13.937470    -15.139547     11.109054
  H      12.779525    -14.559775     11.939971
  C      12.785000    -13.909001      5.224001
  C      13.429721    -12.549729      5.484637
  N      14.793391    -12.590623      5.978001
  C      15.196739    -12.979064      7.213416
  N      14.474762    -13.777104      7.976997
  N      16.389050    -12.588884      7.614385
  H      13.453745    -14.682279      4.845952
  H      11.989438    -13.778958      4.492538
  H      12.320476    -14.304535      6.125918
  H      13.468661    -11.994145      4.545903
  H      12.790631    -11.990894      6.180428
  H      15.399094    -11.891946      5.574276
  H      14.870774    -14.101097      8.880360
  H      13.681127    -14.274094      7.619536
  H      16.787030    -12.932721      8.531988
  H      16.797010    -11.751847      7.232564
  C       8.412999    -16.813004     15.233001
  C       9.860697    -17.179348     15.584223
  N      10.591858    -16.107160     16.223181
  C      11.010189    -14.992994     15.552063
  N      10.830662    -14.866595     14.259056
  N      11.569694    -13.998226     16.217888
  H       7.736528    -17.001581     16.066623
  H       8.070559    -17.415262     14.394798
  H       8.345970    -15.765650     14.952018
  H       9.882623    -18.040411     16.255020
  H      10.403723    -17.459601     14.676558
  H      10.530190    -16.038229     17.226001
  H      11.376622    -14.065138     13.741405
  H      10.519165    -15.643381     13.705626
  H      12.198353    -13.278804     15.663776
  H      11.764260    -14.116839     17.197279
  C      13.998001     -9.220000      7.724999
  O      15.191771     -9.896952      8.013099
  C      14.264114     -7.790548      7.248595
  H      13.329681     -9.174595      8.584877
  H      13.500028     -9.791041      6.931003
  H      15.555471     -9.526577      8.845502
  H      14.793274     -7.245013      8.026428
  H      14.886636     -7.798422      6.356544
  H      13.328123     -7.282177      7.029314
  C      14.518001     -6.670000     12.632999
  S      13.874551     -8.351434     12.922166
  H      14.324364     -6.427596     11.588086
  H      15.585222     -6.660546     12.828627
  H      13.993414     -5.986359     13.292337
  H      14.696640     -8.896785     12.007696
  C      20.972000     -6.019000     10.963999
  C      20.059876     -7.043734     11.642364
  C      18.762156     -7.453566     10.886865
  O      17.982987     -8.168081     11.597135
  O      18.578561     -7.120026      9.721926
  H      20.586780     -5.000259     11.007275
  H      21.084765     -6.286321      9.915264
  H      21.955256     -6.030253     11.434290
  H      20.615810     -7.979198     11.753562
  H      19.771643     -6.709156     12.642514
  C      19.312999    -20.521999      7.175001
  C      18.310220    -19.453688      7.515690
  C      17.145282    -19.326460      6.766757
  C      18.519343    -18.556442      8.553273
  C      16.223171    -18.338972      7.042454
  C      17.602241    -17.560190      8.840956
  C      16.439862    -17.438718      8.086631
  O      15.509629    -16.488238      8.304859
  H      19.761228    -20.307815      6.204785
  H      18.832387    -21.497708      7.116617
  H      20.103793    -20.564768      7.919683
  H      16.960170    -20.014320      5.952838
  H      19.418260    -18.630837      9.149186
  H      15.319745    -18.244898      6.458711
  H      17.792135    -16.867709      9.649351
  H      15.718290    -15.938843      9.095432
  C      19.522001    -11.465000      7.842998
  C      19.481756    -10.499656      9.024218
  N      19.534513    -11.232666     10.263325
  C      20.454375    -11.026947     11.229305
  O      21.423886    -10.296709     11.121776
  N      20.242076    -11.806494     12.355082
  H      19.317472    -10.958064      6.899981
  H      18.811896    -12.269999      7.996741
  H      20.513930    -11.910667      7.772674
  H      20.337196     -9.821319      9.013937
  H      18.571409     -9.889625      8.990840
  H      18.808810    -11.920277     10.417652
  H      20.739541    -11.483504     13.169750
  H      19.287139    -12.087960     12.529871
114
Coordinates from ORCA-job 01_xtb_cit_react E -175.328767277580
  C      16.451332    -11.099543     12.461239
  C      15.264852    -11.330162     13.344936
  C      14.145276    -11.864584     12.832269
  C      13.974168    -11.957276     11.396297
  C      14.866239    -11.454276     10.547919
  C      16.104536    -10.736062     11.002658
  C      13.078039    -12.486348     13.672803
  O      13.153513    -12.441608     14.920090
  O      12.186173    -13.117120     13.038272
  O      15.920199     -9.360257     10.780535
  O      17.235909    -12.323049     12.506736
  C      16.583005    -13.491320     12.166791
  C      16.503342    -13.824193     10.698509
  O      17.337251    -13.297465      9.936404
  O      15.606075    -14.623405     10.314751
  C      16.108490    -14.319194     13.091736
  H      17.129243    -10.337407     12.857798
  H      15.394300    -11.233562     14.411822
  H      13.073872    -12.433832     11.039129
  H      14.694477    -11.480892      9.484935
  H      16.953453    -11.071986     10.390433
  H      16.831366     -8.805339     11.066973
  H      15.654183    -15.250839     12.805886
  H      16.163668    -14.082897     14.140245
  O      13.069082    -15.362076     11.479049
  H      13.937498    -15.141956     11.109622
  H      12.779730    -14.561431     11.940152
  C      12.785000    -13.909001      5.224001
  C      13.428880    -12.549422      5.485240
  N      14.792676    -12.589780      5.978461
  C      15.195467    -12.978379      7.214106
  N      14.472720    -13.775839      7.977749
  N      16.388116    -12.589517      7.615072
  H      13.453745    -14.682279      4.845952
  H      11.989551    -13.779230      4.492308
  H      12.320145    -14.304681      6.125682
  H      13.467360    -11.993136      4.546963
  H      12.789452    -11.991786      6.181578
  H      15.397619    -11.890177      5.575505
  H      14.869738    -14.099970      8.880845
  H      13.679173    -14.273372      7.620617
  H      16.786118    -12.934286      8.532251
  H      16.795345    -11.751561      7.234690
  C       8.412999    -16.813004     15.233001
  C       9.860507    -17.180852     15.583395
  N      10.592567    -16.109698     16.223087
  C      11.010526    -14.994933     15.552660
  N      10.830000    -14.867273     14.259900
  N      11.571011    -14.000828     16.218723
  H       7.736528    -17.001581     16.066622
  H       8.070062    -17.413978     14.394090
  H       8.347165    -15.765209     14.953406
  H       9.881463    -18.042449     16.253585
  H      10.402911    -17.461221     14.675335
  H      10.532407    -16.042026     17.226011
  H      11.376376    -14.066147     13.741623
  H      10.517547    -15.643646     13.706093
  H      12.199372    -13.281376     15.664604
  H      11.766194    -14.120002     17.197921
  C      13.998001     -9.220000      7.724999
  O      15.192397     -9.896246      8.013251
  C      14.263932     -7.791601      7.246461
  H      13.329681     -9.174595      8.584877
  H      13.499746     -9.792672      6.932242
  H      15.554973     -9.526616      8.846401
  H      14.795039     -7.245418      8.022485
  H      14.884524     -7.801254      6.353014
  H      13.328330     -7.282283      7.027554
  C      14.518001     -6.670000     12.632999
  S      13.878145     -8.352536     12.922816
  H      14.324364     -6.427596     11.588086
  H      15.585342     -6.657891     12.828825
  H      13.992825     -5.988108     13.293513
  H      14.699952     -8.897918     12.007932
  C      20.972000     -6.019000     10.963999
  C      20.060421     -7.044608     11.641689
  C      18.763101     -7.456117     10.885785
  O      17.984992     -8.172377     11.595635
  O      18.578627     -7.122209      9.721163
  H      20.586780     -5.000259     11.007275
  H      21.085248     -6.286113      9.915237
  H      21.955433     -6.030361     11.434063
  H      20.616928     -7.979900     11.752829
  H      19.771256     -6.710149     12.641637
  C      19.312999    -20.521999      7.175001
  C      18.309985    -19.453984      7.515240
  C      17.146407    -19.325439      6.764527
  C      18.517548    -18.557667      8.554142
  C      16.224445    -18.337850      7.039602
  C      17.600613    -17.561222      8.841559
  C      16.439953    -17.438365      8.085006
  O      15.510042    -16.487288      8.302095
  H      19.761228    -20.307815      6.204785
  H      18.833015    -21.498030      7.116794
  H      20.103697    -20.563769      7.919863
  H      16.962471    -20.012878      5.949643
  H      19.414956    -18.633917      9.152311
  H      15.321838    -18.242837      6.454994
  H      17.789411    -16.869977      9.651174
  H      15.718310    -15.938866      9.093458
  C      19.522001    -11.465000      7.842998
  C      19.484970    -10.499230      9.024131
  N      19.538258    -11.231873     10.263418
  C      20.456390    -11.023222     11.230261
  O      21.425078    -10.292067     11.123307
  N      20.243750    -11.801225     12.357041
  H      19.317472    -10.958064      6.899981
  H      18.811230    -12.269251      7.997859
  H      20.513503    -11.911880      7.771659
  H      20.341798     -9.822543      9.012610
  H      18.575756     -9.887271      8.991636
  H      18.813623    -11.920605     10.417964
  H      20.740691    -11.476830     13.171444
  H      19.289239    -12.084355     12.531378
114
Coordinates from ORCA-job 01_xtb_cit_react E -175.328778561980
  C      16.452172    -11.101813     12.460087
  C      15.266088    -11.333992     13.344130
  C      14.146020    -11.866659     12.831555
  C      13.973801    -11.958758     11.395942
  C      14.865639    -11.455841     10.547316
  C      16.104324    -10.738640     11.001607
  C      13.078109    -12.487386     13.672044
  O      13.153171    -12.440921     14.919217
  O      12.186086    -13.118149     13.037676
  O      15.920605     -9.362828     10.779944
  O      17.238336    -12.324204     12.504970
  C      16.586670    -13.493338     12.165836
  C      16.504337    -13.825322     10.697656
  O      17.338328    -13.298928      9.935227
  O      15.605696    -14.623183     10.314447
  C      16.114784    -14.322147     13.091338
  H      17.128867    -10.338434     12.856036
  H      15.397038    -11.239113     14.410945
  H      13.073258    -12.434497     11.038551
  H      14.691768    -11.481362      9.484705
  H      16.952790    -11.074383     10.388414
  H      16.833052     -8.807845     11.064310
  H      15.661718    -15.254626     12.806181
  H      16.171462    -14.086108     14.139765
  O      13.068818    -15.363828     11.481459
  H      13.936994    -15.143989     11.110974
  H      12.779091    -14.562394     11.941096
  C      12.785000    -13.909001      5.224001
  C      13.428259    -12.549254      5.485708
  N      14.791986    -12.589312      5.979161
  C      15.194365    -12.978395      7.214839
  N      14.470972    -13.775279      7.978546
  N      16.387145    -12.590208      7.615938
  H      13.453745    -14.682279      4.845952
  H      11.989622    -13.779431      4.492227
  H      12.320037    -14.304334      6.125738
  H      13.466455    -11.992420      4.547793
  H      12.788304    -11.992649      6.182397
  H      15.396293    -11.888737      5.577044
  H      14.868673    -14.099660      8.881328
  H      13.677540    -14.273113      7.621647
  H      16.785096    -12.935977      8.532974
  H      16.794090    -11.750976      7.237859
  C       8.412999    -16.813004     15.233001
  C       9.860578    -17.180713     15.583989
  N      10.593180    -16.109549     16.223213
  C      11.010395    -14.994594     15.552743
  N      10.828383    -14.866354     14.260160
  N      11.571268    -14.000572     16.218570
  H       7.736528    -17.001581     16.066623
  H       8.070832    -17.413812     14.393748
  H       8.347338    -15.765004     14.953939
  H       9.881271    -18.042160     16.254686
  H      10.402980    -17.461983     14.676198
  H      10.534449    -16.041778     17.226181
  H      11.375003    -14.065927     13.740919
  H      10.514761    -15.642303     13.706675
  H      12.199085    -13.281353     15.664062
  H      11.767235    -14.119840     17.197592
  C      13.998001     -9.220000      7.724999
  O      15.192831     -9.896167      8.012586
  C      14.263985     -7.791967      7.245504
  H      13.329681     -9.174595      8.584877
  H      13.499395     -9.793316      6.932775
  H      15.554562     -9.527101      8.845940
  H      14.796935     -7.245711      8.020197
  H      14.882196     -7.802122      6.350446
  H      13.328474     -7.281994      7.027627
  C      14.518001     -6.670000     12.632999
  S      13.881091     -8.353665     12.922754
  H      14.324364     -6.427596     11.588086
  H      15.585647     -6.656202     12.828321
  H      13.993127     -5.989040     13.294638
  H      14.702414     -8.899386     12.007413
  C      20.972000     -6.019000     10.963999
  C      20.060327     -7.045034     11.640696
  C      18.763874     -7.457189     10.883613
  O      17.986563     -8.175344     11.592493
  O      18.578731     -7.122421      9.719324
  H      20.586780     -5.000259     11.007275
  H      21.085372     -6.286291      9.915280
  H      21.955325     -6.030451     11.434371
  H      20.616374     -7.980790     11.751895
  H      19.770009     -6.711313     12.640561
  C      19.312999    -20.521999      7.175001
  C      18.309752    -19.454031      7.514936
  C      17.147233    -19.324006      6.762752
  C      18.516073    -18.558467      8.554671
  C      16.225612    -18.335970      7.037094
  C      17.599231    -17.562025      8.842023
  C      16.440077    -17.437363      8.083514
  O      15.510332    -16.485815      8.299824
  H      19.761228    -20.307815      6.204785
  H      18.833530    -21.498292      7.116809
  H      20.103633    -20.563075      7.920052
  H      16.964165    -20.010678      5.946731
  H      19.412678    -18.635447      9.153871
  H      15.323946    -18.239529      6.451263
  H      17.786656    -16.872217      9.653089
  H      15.718107    -15.938267      9.091979
  C      19.522001    -11.465000      7.842998
  C      19.488012    -10.498631      9.023765
  N      19.541128    -11.230741     10.263401
  C      20.457433    -11.018830     11.231425
  O      21.425884    -10.287291     11.124576
  N      20.243906    -11.794447     12.359591
  H      19.317472    -10.958064      6.899981
  H      18.810504    -12.268221      7.999096
  H      20.512683    -11.913461      7.770531
  H      20.346206     -9.823786      9.011249
  H      18.579967     -9.884895      8.991690
  H      18.817550    -11.920713     10.418030
  H      20.739858    -11.468083     13.173740
  H      19.289670    -12.079123     12.533294
114
Coordinates from ORCA-job 01_xtb_cit_react E -175.328788093580
  C      16.452891    -11.103940     12.459058
  C      15.267275    -11.337998     13.343684
  C      14.146731    -11.869495     12.830961
  C      13.973562    -11.960489     11.395450
  C      14.864975    -11.456965     10.546760
  C      16.104272    -10.740788     11.000608
  C      13.078142    -12.489659     13.671283
  O      13.152636    -12.441580     14.918399
  O      12.186032    -13.120410     13.036774
  O      15.921343     -9.364877     10.779469
  O      17.240551    -12.325469     12.503814
  C      16.589590    -13.495268     12.165540
  C      16.505029    -13.826387     10.697488
  O      17.338857    -13.300187      9.934459
  O      15.605302    -14.623252     10.315008
  C      16.119698    -14.324540     13.091626
  H      17.128363    -10.339479     12.855000
  H      15.400002    -11.244975     14.410543
  H      13.072115    -12.434865     11.038389
  H      14.689130    -11.482077      9.484454
  H      16.952126    -11.076348     10.386520
  H      16.834671     -8.809357     11.062339
  H      15.668075    -15.258086     12.807355
  H      16.177848    -14.088990     14.140026
  O      13.068608    -15.366144     11.483984
  H      13.936541    -15.146528     11.112785
  H      12.778211    -14.563961     11.942265
  C      12.785000    -13.909001      5.224001
  C      13.428148    -12.549161      5.485711
  N      14.791496    -12.589221      5.979938
  C      15.193613    -12.978771      7.215528
  N      14.469519    -13.774888      7.979638
  N      16.386431    -12.591310      7.616701
  H      13.453745    -14.682279      4.845952
  H      11.989537    -13.779487      4.492338
  H      12.320261    -14.303755      6.126133
  H      13.466600    -11.992339      4.547816
  H      12.787711    -11.992726      6.182187
  H      15.395894    -11.888733      5.578132
  H      14.867754    -14.099766      8.882091
  H      13.676120    -14.273068      7.622672
  H      16.784306    -12.937484      8.533795
  H      16.793116    -11.751232      7.240576
  C       8.412999    -16.813004     15.233001
  C       9.860255    -17.181402     15.584307
  N      10.593818    -16.110758     16.223239
  C      11.010246    -14.995242     15.553119
  N      10.826800    -14.866513     14.260798
  N      11.571481    -14.001318     16.218880
  H       7.736528    -17.001581     16.066622
  H       8.071131    -17.413303     14.393490
  H       8.347847    -15.764739     14.954531
  H       9.880377    -18.042874     16.254654
  H      10.403120    -17.462935     14.676639
  H      10.535991    -16.042773     17.226226
  H      11.373615    -14.066980     13.740661
  H      10.512321    -15.642623     13.707511
  H      12.198756    -13.282378     15.663756
  H      11.768772    -14.121195     17.197602
  C      13.998001     -9.220000      7.724999
  O      15.193090     -9.895779      8.012063
  C      14.263446     -7.792153      7.244902
  H      13.329681     -9.174595      8.584877
  H      13.499516     -9.793592      6.932963
  H      15.554312     -9.526789      8.845344
  H      14.797836     -7.245824      8.018455
  H      14.879458     -7.802599      6.348379
  H      13.327568     -7.282047      7.028602
  C      14.518001     -6.670000     12.632999
  S      13.883994     -8.354740     12.922791
  H      14.324364     -6.427596     11.588086
  H      15.585694     -6.654476     12.827919
  H      13.992630     -5.989633     13.294611
  H      14.705232     -8.899874     12.007060
  C      20.972000     -6.019000     10.963999
  C      20.060084     -7.045048     11.639907
  C      18.764704     -7.457939     10.881819
  O      17.988062     -8.177915     11.589692
  O      18.578971     -7.122656      9.717709
  H      20.586780     -5.000259     11.007275
  H      21.085334     -6.286636      9.915317
  H      21.954987     -6.030380     11.434988
  H      20.615829     -7.981230     11.751525
  H      19.768546     -6.712118     12.639701
  C      19.312999    -20.521999      7.175001
  C      18.309728    -19.453936      7.514365
  C      17.148327    -19.322533      6.760607
  C      18.514653    -18.559770      8.555630
  C      16.226849    -18.334243      7.034600
  C      17.597799    -17.563498      8.842839
  C      16.440029    -17.437000      8.082541
  O      15.510568    -16.484985      8.298279
  H      19.761228    -20.307815      6.204785
  H      18.833761    -21.498384      7.116853
  H      20.103471    -20.562682      7.920221
  H      16.965902    -20.008307      5.943653
  H      19.410290    -18.637577      9.156307
  H      15.326201    -18.236424      6.447405
  H      17.783653    -16.874985      9.655255
  H      15.717867    -15.938335      9.091131
  C      19.522001    -11.465000      7.842998
  C      19.490782    -10.498145      9.023349
  N      19.543318    -11.229703     10.263432
  C      20.457789    -11.014570     11.232583
  O      21.425847    -10.282667     11.125183
  N      20.243769    -11.787629     12.362090
  H      19.317472    -10.958064      6.899981
  H      18.809636    -12.267095      8.000403
  H      20.511678    -11.915416      7.769447
  H      20.350392     -9.825221      9.009953
  H      18.583943     -9.882653      8.991549
  H      18.820657    -11.920699     10.418247
  H      20.738649    -11.459110     13.176016
  H      19.289944    -12.074041     12.535418
114
Coordinates from ORCA-job 01_xtb_cit_react E -175.328796471280
  C      16.452797    -11.105830     12.457483
  C      15.267706    -11.341080     13.342381
  C      14.147132    -11.872018     12.829715
  C      13.973233    -11.961852     11.394175
  C      14.864170    -11.457757     10.545505
  C      16.104195    -10.742682     10.998953
  C      13.078253    -12.491912     13.669924
  O      13.152034    -12.442450     14.916826
  O      12.186207    -13.122874     13.035169
  O      15.922300     -9.366582     10.778056
  O      17.241951    -12.326743     12.502568
  C      16.591140    -13.496988     12.165091
  C      16.505229    -13.827633     10.697138
  O      17.338830    -13.301581      9.933577
  O      15.604873    -14.623870     10.315214
  C      16.122494    -14.326246     13.091736
  H      17.127445    -10.340752     12.853838
  H      15.402005    -11.249189     14.409084
  H      13.070574    -12.434663     11.037782
  H      14.686986    -11.483294      9.483448
  H      16.951433    -11.078410     10.384206
  H      16.836609     -8.810642     11.060124
  H      15.671787    -15.260647     12.808461
  H      16.181765    -14.091019     14.140245
  O      13.068335    -15.368829     11.486309
  H      13.935978    -15.149294     11.114257
  H      12.777210    -14.565922     11.943098
  C      12.785000    -13.909001      5.224001
  C      13.428268    -12.549112      5.485334
  N      14.791259    -12.589317      5.980178
  C      15.193337    -12.979520      7.215445
  N      14.468643    -13.774963      7.979944
  N      16.386111    -12.592527      7.616861
  H      13.453745    -14.682279      4.845952
  H      11.989390    -13.779495      4.492536
  H      12.320616    -14.303291      6.126538
  H      13.467029    -11.992644      4.547233
  H      12.787530    -11.992378      6.181414
  H      15.396092    -11.888885      5.578548
  H      14.867033    -14.100564      8.881951
  H      13.675555    -14.273373      7.622683
  H      16.783593    -12.939020      8.534238
  H      16.792802    -11.751538      7.242806
  C       8.412999    -16.813004     15.233001
  C       9.859905    -17.181850     15.585263
  N      10.594364    -16.111087     16.223323
  C      11.009919    -14.995396     15.552982
  N      10.824987    -14.866536     14.260890
  N      11.571203    -14.001388     16.218509
  H       7.736528    -17.001581     16.066623
  H       8.071453    -17.413457     14.393371
  H       8.348102    -15.764777     14.954648
  H       9.879840    -18.042742     16.256435
  H      10.402901    -17.464461     14.678079
  H      10.537235    -16.042606     17.226366
  H      11.372236    -14.067908     13.739991
  H      10.509624    -15.642472     13.708192
  H      12.198175    -13.282862     15.662546
  H      11.770380    -14.121966     17.196763
  C      13.998001     -9.220000      7.724999
  O      15.192970     -9.895897      8.011629
  C      14.263253     -7.791688      7.245431
  H      13.329681     -9.174595      8.584877
  H      13.499597     -9.792941      6.932448
  H      15.554316     -9.526420      8.844486
  H      14.798590     -7.245966      8.018737
  H      14.877909     -7.801376      6.348056
  H      13.326937     -7.281643      7.030877
  C      14.518001     -6.670000     12.632999
  S      13.886595     -8.355620     12.922650
  H      14.324364     -6.427596     11.588086
  H      15.585663     -6.652819     12.827674
  H      13.991429     -5.989906     13.293911
  H      14.707996     -8.899666     12.006397
  C      20.972000     -6.019000     10.963999
  C      20.059323     -7.044610     11.639388
  C      18.765389     -7.458144     10.879903
  O      17.989246     -8.179923     11.586701
  O      18.579647     -7.122195      9.715968
  H      20.586780     -5.000259     11.007275
  H      21.085253     -6.286956      9.915368
  H      21.954531     -6.030300     11.435793
  H      20.614759     -7.980855     11.752218
  H      19.766304     -6.711968     12.638808
  C      19.312999    -20.521999      7.175001
  C      18.309613    -19.453829      7.513906
  C      17.149209    -19.321422      6.758755
  C      18.513253    -18.561099      8.556618
  C      16.227705    -18.332968      7.032356
  C      17.596125    -17.565087      8.843504
  C      16.439527    -17.437087      8.081627
  O      15.510283    -16.484742      8.297006
  H      19.761228    -20.307815      6.204785
  H      18.833781    -21.498410      7.116894
  H      20.103355    -20.562637      7.920346
  H      16.967581    -20.005989      5.940712
  H      19.407973    -18.639512      9.158749
  H      15.327984    -18.234210      6.443888
  H      17.780295    -16.877563      9.657107
  H      15.717141    -15.938707      9.090348
  C      19.522001    -11.465000      7.842998
  C      19.492581    -10.497702      9.023024
  N      19.544422    -11.228834     10.263532
  C      20.457139    -11.010727     11.233904
  O      21.424714    -10.277999     11.126046
  N      20.242628    -11.781555     12.364634
  H      19.317472    -10.958064      6.899981
  H      18.808654    -12.266063      8.001298
  H      20.510766    -11.917241      7.768695
  H      20.353191     -9.826071      9.009189
  H      18.586521     -9.881061      8.991421
  H      18.822801    -11.921002     10.418183
  H      20.736183    -11.450894     13.178505
  H      19.289145    -12.069487     12.537612
114
Coordinates from ORCA-job 01_xtb_cit_react E -175.328804247930
  C      16.453122    -11.108040     12.456361
  C      15.268254    -11.343812     13.341811
  C      14.147432    -11.874468     12.829021
  C      13.973103    -11.962849     11.393290
  C      14.863554    -11.458101     10.544660
  C      16.104688    -10.744435     10.997769
  C      13.078555    -12.494610     13.668967
  O      13.151229    -12.444170     14.915787
  O      12.187057    -13.126073     13.033765
  O      15.923912     -9.368096     10.777416
  O      17.243268    -12.328688     12.501584
  C      16.592270    -13.499105     12.164631
  C      16.505281    -13.829035     10.696687
  O      17.338474    -13.302948      9.932704
  O      15.604461    -14.624734     10.315174
  C      16.124817    -14.328590     13.091549
  H      17.127481    -10.342810     12.853365
  H      15.403848    -11.253014     14.408522
  H      13.069343    -12.434282     11.037313
  H      14.685284    -11.484266      9.482775
  H      16.951159    -11.080581     10.382385
  H      16.839015     -8.811789     11.059359
  H      15.674374    -15.263334     12.808914
  H      16.185556    -14.094180     14.140289
  O      13.068595    -15.371830     11.487976
  H      13.935904    -15.152269     11.115231
  H      12.776721    -14.568326     11.943323
  C      12.785000    -13.909001      5.224001
  C      13.428527    -12.549024      5.484496
  N      14.791137    -12.589333      5.979991
  C      15.193377    -12.980147      7.214822
  N      14.468161    -13.775050      7.979672
  N      16.386150    -12.593594      7.616459
  H      13.453745    -14.682279      4.845952
  H      11.989121    -13.779575      4.492823
  H      12.321093    -14.303014      6.126934
  H      13.467846    -11.993333      4.545925
  H      12.787601    -11.991475      6.179836
  H      15.396827    -11.889866      5.578124
  H      14.866505    -14.101355      8.881334
  H      13.675610    -14.273944      7.621778
  H      16.783073    -12.940142      8.534248
  H      16.792813    -11.751974      7.243988
  C       8.412999    -16.813004     15.233001
  C       9.859765    -17.182448     15.585010
  N      10.594861    -16.112149     16.222990
  C      11.009657    -14.996108     15.552886
  N      10.823591    -14.866971     14.261011
  N      11.570892    -14.002143     16.218542
  H       7.736528    -17.001581     16.066622
  H       8.071012    -17.413263     14.393576
  H       8.348244    -15.764672     14.954619
  H       9.879459    -18.043362     16.255806
  H      10.403235    -17.464732     14.677855
  H      10.538207    -16.044135     17.226107
  H      11.371429    -14.069185     13.739709
  H      10.508150    -15.643187     13.708511
  H      12.197599    -13.283818     15.661742
  H      11.772231    -14.123788     17.196229
  C      13.998001     -9.220000      7.724999
  O      15.192786     -9.895977      8.011595
  C      14.262829     -7.791150      7.246335
  H      13.329681     -9.174595      8.584877
  H      13.499907     -9.792019      6.931741
  H      15.554744     -9.525844      8.844090
  H      14.798746     -7.246134      8.019712
  H      14.876874     -7.799882      6.348557
  H      13.325916     -7.281413      7.033595
  C      14.518001     -6.670000     12.632999
  S      13.889621     -8.356809     12.922073
  H      14.324364     -6.427596     11.588086
  H      15.585395     -6.650792     12.828142
  H      13.988981     -5.990553     13.292692
  H      14.712117     -8.898873     12.005433
  C      20.972000     -6.019000     10.963999
  C      20.058766     -7.044096     11.639435
  C      18.766093     -7.458783     10.879081
  O      17.990719     -8.182082     11.585275
  O      18.580328     -7.122541      9.715236
  H      20.586780     -5.000259     11.007275
  H      21.085132     -6.287190      9.915421
  H      21.954156     -6.030245     11.436291
  H      20.614530     -7.979819     11.753857
  H      19.764407     -6.711005     12.638202
  C      19.312999    -20.521999      7.175001
  C      18.309456    -19.453736      7.513452
  C      17.150460    -19.320067      6.756300
  C      18.511589    -18.562794      8.557954
  C      16.228747    -18.331554      7.029469
  C      17.594126    -17.566893      8.844153
  C      16.438978    -17.437270      8.080260
  O      15.510013    -16.484617      8.295329
  H      19.761228    -20.307815      6.204785
  H      18.833584    -21.498328      7.116903
  H      20.103200    -20.562869      7.920451
  H      16.969816    -20.003292      5.937207
  H      19.405187    -18.641910      9.161692
  H      15.330435    -18.231500      6.438842
  H      17.776425    -16.880273      9.658981
  H      15.716337    -15.939149      9.089119
  C      19.522001    -11.465000      7.842998
  C      19.493983    -10.497608      9.022713
  N      19.545380    -11.228530     10.263446
  C      20.456477    -11.007822     11.234860
  O      21.422998    -10.273621     11.126810
  N      20.242220    -11.777639     12.366065
  H      19.317472    -10.958064      6.899981
  H      18.807566    -12.264875      8.001904
  H      20.509884    -11.918834      7.768316
  H      20.355277     -9.826967      9.008653
  H      18.588685     -9.879956      8.991344
  H      18.824728    -11.921616     10.417945
  H      20.734873    -11.445742     13.179967
  H      19.289088    -12.066870     12.538900
114
Coordinates from ORCA-job 01_xtb_cit_react E -175.328811647920
  C      16.452754    -11.110233     12.455063
  C      15.268296    -11.345712     13.340562
  C      14.147297    -11.875977     12.828126
  C      13.972632    -11.963176     11.392193
  C      14.862826    -11.458339     10.543408
  C      16.104944    -10.746115     10.996428
  C      13.078628    -12.496126     13.668262
  O      13.150102    -12.444937     14.914991
  O      12.187950    -13.128555     13.032757
  O      15.925538     -9.369405     10.776350
  O      17.243783    -12.330506     12.500784
  C      16.592461    -13.501032     12.164385
  C      16.504867    -13.830739     10.696268
  O      17.337726    -13.304536      9.932051
  O      15.603860    -14.626252     10.314889
  C      16.125677    -14.330496     13.091547
  H      17.127137    -10.345230     12.852708
  H      15.404549    -11.255274     14.407169
  H      13.068138    -12.433565     11.036485
  H      14.684182    -11.485207      9.481594
  H      16.950932    -11.082895     10.380808
  H      16.841812     -8.813573     11.058784
  H      15.674783    -15.265152     12.809439
  H      16.187726    -14.096735     14.140538
  O      13.068979    -15.375091     11.489532
  H      13.935823    -15.155365     11.116001
  H      12.776590    -14.570941     11.943315
  C      12.785000    -13.909001      5.224001
  C      13.428872    -12.549033      5.483592
  N      14.791232    -12.589558      5.979491
  C      15.193697    -12.981054      7.213853
  N      14.468074    -13.775694      7.978784
  N      16.386507    -12.594908      7.615700
  H      13.453745    -14.682279      4.845952
  H      11.988938    -13.779647      4.492997
  H      12.321327    -14.302977      6.127065
  H      13.468805    -11.994239      4.544491
  H      12.787990    -11.990459      6.178168
  H      15.397990    -11.890889      5.577364
  H      14.866040    -14.102772      8.880178
  H      13.676265    -14.275112      7.619991
  H      16.782540    -12.941433      8.534035
  H      16.792972    -11.752652      7.244590
  C       8.412999    -16.813004     15.233001
  C       9.859590    -17.182632     15.585079
  N      10.594806    -16.112191     16.223012
  C      11.008647    -14.995729     15.552941
  N      10.821501    -14.866228     14.261276
  N      11.569714    -14.001667     16.218639
  H       7.736528    -17.001581     16.066623
  H       8.070703    -17.413489     14.393702
  H       8.348244    -15.764898     14.954417
  H       9.879289    -18.043151     16.256472
  H      10.402947    -17.465177     14.678142
  H      10.538507    -16.044733     17.226296
  H      11.370352    -14.069151     13.739809
  H      10.506264    -15.642602     13.708956
  H      12.196434    -13.283488     15.661006
  H      11.773400    -14.124310     17.195681
  C      13.998001     -9.220000      7.724999
  O      15.192287     -9.896548      8.011627
  C      14.263023     -7.790284      7.248251
  H      13.329681     -9.174595      8.584877
  H      13.500085     -9.790509      6.930671
  H      15.555430     -9.525485      8.843450
  H      14.799164     -7.246601      8.022430
  H      14.877308     -7.797275      6.350632
  H      13.325761     -7.280664      7.037020
  C      14.518001     -6.670000     12.632999
  S      13.892591     -8.357830     12.921196
  H      14.324364     -6.427596     11.588086
  H      15.585043     -6.648629     12.829016
  H      13.986350     -5.991686     13.291875
  H      14.716169     -8.897990     12.004087
  C      20.972000     -6.019000     10.963999
  C      20.058505     -7.043630     11.640084
  C      18.767042     -7.459956     10.878904
  O      17.992725     -8.185106     11.584565
  O      18.581215     -7.123054      9.715309
  H      20.586780     -5.000259     11.007275
  H      21.084939     -6.287358      9.915425
  H      21.954111     -6.030187     11.436364
  H      20.615127     -7.978320     11.756754
  H      19.762690     -6.709016     12.637837
  C      19.312999    -20.521999      7.175001
  C      18.309197    -19.453849      7.513260
  C      17.151622    -19.319192      6.754226
  C      18.509839    -18.564550      8.559440
  C      16.229458    -18.330921      7.027034
  C      17.591845    -17.568838      8.845020
  C      16.437967    -17.438168      8.079358
  O      15.509091    -16.485484      8.294351
  H      19.761228    -20.307815      6.204785
  H      18.833444    -21.498275      7.116980
  H      20.103108    -20.563056      7.920467
  H      16.972296    -20.000983      5.933822
  H      19.402238    -18.644510      9.164867
  H      15.332131    -18.230553      6.435077
  H      17.772354    -16.882806      9.660810
  H      15.714978    -15.940277      9.088384
  C      19.522001    -11.465000      7.842998
  C      19.494583    -10.497620      9.022749
  N      19.545797    -11.228473     10.263638
  C      20.455372    -11.005536     11.236037
  O      21.420643    -10.269445     11.128340
  N      20.241390    -11.774986     12.367479
  H      19.317472    -10.958064      6.899981
  H      18.806361    -12.263940      8.001999
  H      20.509374    -11.920050      7.768208
  H      20.356150     -9.827207      9.008841
  H      18.589486     -9.879610      8.991452
  H      18.826139    -11.922574     10.417683
  H      20.733221    -11.442079     13.181531
  H      19.288492    -12.064953     12.540182
114
Coordinates from ORCA-job 01_xtb_cit_react E -175.328819069420
  C      16.452920    -11.112059     12.454506
  C      15.268236    -11.346947     13.340221
  C      14.146648    -11.876463     12.827688
  C      13.972034    -11.962802     11.391696
  C      14.862285    -11.458228     10.542782
  C      16.105425    -10.747409     10.995849
  C      13.078126    -12.496753     13.667573
  O      13.148124    -12.444756     14.914363
  O      12.188860    -13.130673     13.031811
  O      15.927497     -9.370455     10.776050
  O      17.244213    -12.332146     12.499778
  C      16.592949    -13.502771     12.163618
  C      16.504409    -13.832108     10.695490
  O      17.336862    -13.305639      9.931238
  O      15.603202    -14.627442     10.314244
  C      16.127439    -14.332741     13.090824
  H      17.127605    -10.347306     12.852402
  H      15.404309    -11.257094     14.406913
  H      13.067347    -12.432800     11.035694
  H      14.683589    -11.485591      9.480968
  H      16.950924    -11.085169     10.380029
  H      16.844727     -8.815442     11.059298
  H      15.675763    -15.266966     12.808766
  H      16.190987    -14.099816     14.139990
  O      13.070024    -15.378261     11.490772
  H      13.936444    -15.158202     11.116471
  H      12.777108    -14.573456     11.942904
  C      12.785000    -13.909001      5.224001
  C      13.429041    -12.548949      5.482435
  N      14.791218    -12.589408      5.978723
  C      15.194035    -12.981385      7.212709
  N      14.468232    -13.776027      7.977567
  N      16.387078    -12.595567      7.614478
  H      13.453745    -14.682279      4.845952
  H      11.988656    -13.779990      4.493201
  H      12.321557    -14.302967      6.127169
  H      13.469639    -11.995223      4.542696
  H      12.788217    -11.989232      6.176124
  H      15.399073    -11.892090      5.575953
  H      14.865778    -14.103745      8.878867
  H      13.677347    -14.276075      7.617821
  H      16.782211    -12.941839      8.533356
  H      16.793070    -11.752777      7.243958
  C       8.412999    -16.813004     15.233001
  C       9.859917    -17.181886     15.584529
  N      10.594215    -16.111219     16.222991
  C      11.007204    -14.994483     15.553057
  N      10.819157    -14.864589     14.261490
  N      11.568013    -14.000408     16.218850
  H       7.736528    -17.001581     16.066622
  H       8.070453    -17.413999     14.394128
  H       8.347509    -15.765065     14.953773
  H       9.879968    -18.042537     16.255710
  H      10.403571    -17.463593     14.677509
  H      10.538289    -16.044870     17.226319
  H      11.369030    -14.068126     13.740068
  H      10.504557    -15.641203     13.709280
  H      12.194508    -13.282076     15.660521
  H      11.773350    -14.123563     17.195456
  C      13.998001     -9.220000      7.724999
  O      15.192016     -9.897190      8.011706
  C      14.263108     -7.789534      7.250344
  H      13.329681     -9.174595      8.584877
  H      13.500298     -9.789143      6.929760
  H      15.556501     -9.525453      8.843051
  H      14.799429     -7.247145      8.025360
  H      14.877794     -7.794799      6.352929
  H      13.325508     -7.279874      7.040484
  C      14.518001     -6.670000     12.632999
  S      13.895346     -8.359027     12.920135
  H      14.324364     -6.427596     11.588086
  H      15.584735     -6.646587     12.830323
  H      13.983697     -5.993139     13.291471
  H      14.720597     -8.897005     12.002761
  C      20.972000     -6.019000     10.963999
  C      20.058859     -7.043599     11.641055
  C      18.768209     -7.461757     10.879572
  O      17.995307     -8.188833     11.584809
  O      18.581975     -7.124007      9.716362
  H      20.586780     -5.000259     11.007275
  H      21.084587     -6.287379      9.915446
  H      21.954351     -6.030184     11.435707
  H      20.616629     -7.977070     11.759532
  H      19.762058     -6.707228     12.637817
  C      19.312999    -20.521999      7.175001
  C      18.308976    -19.453877      7.513130
  C      17.153209    -19.317700      6.751678
  C      18.507914    -18.566206      8.560970
  C      16.230595    -18.329613      7.023896
  C      17.589505    -17.570487      8.845751
  C      16.437289    -17.438474      8.077789
  O      15.508395    -16.485884      8.292769
  H      19.761228    -20.307815      6.204785
  H      18.833205    -21.498173      7.116972
  H      20.103010    -20.563317      7.920513
  H      16.975440    -19.998094      5.929894
  H      19.398979    -18.647220      9.168049
  H      15.334776    -18.228247      6.429676
  H      17.768046    -16.885160      9.662639
  H      15.713778    -15.940957      9.087132
  C      19.522001    -11.465000      7.842998
  C      19.495436    -10.497762      9.022719
  N      19.546753    -11.228674     10.263457
  C      20.454872    -11.003946     11.236822
  O      21.418748    -10.265858     11.130091
  N      20.241227    -11.774120     12.367877
  H      19.317472    -10.958064      6.899981
  H      18.804966    -12.262598      8.001930
  H      20.508778    -11.921094      7.768253
  H      20.357254     -9.827671      9.008934
  H      18.590751     -9.879164      8.991473
  H      18.827829    -11.923462     10.417147
  H      20.732719    -11.441491     13.182182
  H      19.288393    -12.064422     12.540357
114
Coordinates from ORCA-job 01_xtb_cit_react E -175.328826650560
  C      16.452948    -11.113505     12.454219
  C      15.268450    -11.347672     13.339828
  C      14.146128    -11.875708     12.827610
  C      13.971332    -11.961715     11.391643
  C      14.861827    -11.457939     10.542405
  C      16.105615    -10.748308     10.995639
  C      13.077665    -12.495673     13.667694
  O      13.146453    -12.442762     14.914599
  O      12.189810    -13.131383     13.031911
  O      15.929465     -9.371039     10.775795
  O      17.244598    -12.333031     12.499289
  C      16.593373    -13.503779     12.163400
  C      16.503925    -13.833144     10.695123
  O      17.336085    -13.306386      9.930817
  O      15.602485    -14.628395     10.313967
  C      16.128611    -14.334020     13.090799
  H      17.127747    -10.348891     12.852100
  H      15.403940    -11.257805     14.406645
  H      13.066774    -12.431556     11.035390
  H      14.683456    -11.485275      9.480578
  H      16.950870    -11.087000     10.379900
  H      16.847933     -8.817732     11.060296
  H      15.676134    -15.267709     12.808576
  H      16.193160    -14.101521     14.140058
  O      13.071613    -15.380853     11.492984
  H      13.937478    -15.160542     11.117741
  H      12.778405    -14.575282     11.943395
  C      12.785000    -13.909001      5.224001
  C      13.429124    -12.548928      5.481506
  N      14.791138    -12.589285      5.978294
  C      15.194132    -12.981580      7.212118
  N      14.468392    -13.776488      7.976655
  N      16.387497    -12.596188      7.613486
  H      13.453745    -14.682279      4.845952
  H      11.988488    -13.780393      4.493261
  H      12.321511    -14.302909      6.127127
  H      13.470465    -11.996199      4.541205
  H      12.788309    -11.988125      6.174271
  H      15.399938    -11.893087      5.574965
  H      14.865514    -14.104746      8.877967
  H      13.678386    -14.277339      7.615916
  H      16.781775    -12.942071      8.532925
  H      16.792722    -11.753003      7.243079
  C       8.412999    -16.813004     15.233001
  C       9.860307    -17.180287     15.584418
  N      10.593008    -16.108924     16.223505
  C      11.005073    -14.991630     15.553786
  N      10.816087    -14.861097     14.262359
  N      11.565815    -13.997408     16.219564
  H       7.736528    -17.001581     16.066623
  H       8.070871    -17.414760     14.394530
  H       8.346422    -15.765451     14.953007
  H       9.881004    -18.041050     16.255601
  H      10.404127    -17.461183     14.677370
  H      10.537252    -16.043339     17.226921
  H      11.367276    -14.065216     13.741199
  H      10.502509    -15.638230     13.710002
  H      12.192324    -13.279033     15.660893
  H      11.772282    -14.120820     17.195856
  C      13.998001     -9.220000      7.724999
  O      15.191527     -9.898168      8.011525
  C      14.263862     -7.788790      7.252950
  H      13.329681     -9.174595      8.584877
  H      13.500479     -9.787743      6.928850
  H      15.557576     -9.525923      8.842026
  H      14.800151     -7.247984      8.029077
  H      14.879139     -7.792063      6.355888
  H      13.326323     -7.278705      7.043934
  C      14.518001     -6.670000     12.632999
  S      13.898345     -8.360392     12.918311
  H      14.324364     -6.427596     11.588086
  H      15.584383     -6.644430     12.831659
  H      13.981709     -5.995257     13.292061
  H      14.725047     -8.896563     12.000690
  C      20.972000     -6.019000     10.963999
  C      20.059853     -7.043698     11.642547
  C      18.769586     -7.463665     10.881219
  O      17.998499     -8.192972     11.586294
  O      18.581998     -7.124796      9.718626
  H      20.586780     -5.000259     11.007275
  H      21.083883     -6.287494      9.915415
  H      21.955048     -6.030093     11.434466
  H      20.618756     -7.976132     11.762738
  H      19.762445     -6.705228     12.638454
  C      19.312999    -20.521999      7.175001
  C      18.308871    -19.453932      7.513166
  C      17.154825    -19.316156      6.749548
  C      18.506084    -18.567791      8.562655
  C      16.231759    -18.328388      7.021372
  C      17.587336    -17.572131      8.846993
  C      16.436637    -17.438929      8.077022
  O      15.507454    -16.486683      8.292217
  H      19.761228    -20.307815      6.204785
  H      18.833125    -21.498121      7.117016
  H      20.102968    -20.563362      7.920508
  H      16.978733    -19.995225      5.926217
  H      19.395762    -18.650301      9.171473
  H      15.337073    -18.226458      6.425720
  H      17.763991    -16.887550      9.664934
  H      15.712390    -15.941786      9.086777
  C      19.522001    -11.465000      7.842998
  C      19.496333    -10.497784      9.022789
  N      19.547879    -11.228654     10.263503
  C      20.454705    -11.002503     11.237620
  O      21.417487    -10.262936     11.131985
  N      20.241147    -11.773352     12.368348
  H      19.317472    -10.958064      6.899981
  H      18.803393    -12.261277      8.001767
  H      20.508285    -11.922228      7.768179
  H      20.358346     -9.827818      9.009025
  H      18.591833     -9.878799      8.991303
  H      18.829525    -11.924057     10.416790
  H      20.732251    -11.440624     13.182931
  H      19.288216    -12.063309     12.540532
114
Coordinates from ORCA-job 01_xtb_cit_react E -175.328834031410
  C      16.452899    -11.114078     12.454511
  C      15.268060    -11.348185     13.339830
  C      14.144882    -11.874369     12.827346
  C      13.970275    -11.960643     11.391580
  C      14.861459    -11.457754     10.542350
  C      16.105473    -10.748687     10.995855
  C      13.075971    -12.493686     13.667126
  O      13.143571    -12.439101     14.914165
  O      12.189640    -13.131374     13.031479
  O      15.931160     -9.371322     10.775519
  O      17.244737    -12.333067     12.498511
  C      16.594028    -13.504067     12.162647
  C      16.503524    -13.833502     10.694527
  O      17.335465    -13.306474      9.930238
  O      15.601873    -14.628782     10.313701
  C      16.130633    -14.334864     13.090227
  H      17.127417    -10.349086     12.852052
  H      15.402392    -11.258706     14.406779
  H      13.066084    -12.430760     11.034969
  H      14.683712    -11.484892      9.480431
  H      16.950566    -11.088554     10.380296
  H      16.850448     -8.819641     11.061266
  H      15.677847    -15.268317     12.807689
  H      16.195816    -14.102436     14.139347
  O      13.073595    -15.383203     11.495789
  H      13.938974    -15.162559     11.119447
  H      12.779890    -14.576758     11.944340
  C      12.785000    -13.909001      5.224001
  C      13.429009    -12.548850      5.480650
  N      14.790869    -12.588954      5.977974
  C      15.194059    -12.981391      7.211771
  N      14.468642    -13.776800      7.975930
  N      16.387961    -12.596308      7.612388
  H      13.453745    -14.682279      4.845952
  H      11.988256    -13.780929      4.493373
  H      12.321572    -14.302578      6.127271
  H      13.470951    -11.996970      4.539858
  H      12.788061    -11.987182      6.172587
  H      15.400180    -11.893543      5.573980
  H      14.865517    -14.105453      8.877327
  H      13.679357    -14.278190      7.614531
  H      16.781595    -12.941566      8.532327
  H      16.792145    -11.752736      7.241496
  C       8.412999    -16.813004     15.233001
  C       9.860854    -17.177440     15.585046
  N      10.590785    -16.104569     16.224524
  C      11.001769    -14.987116     15.554574
  N      10.811734    -14.856485     14.263154
  N      11.562252    -13.992554     16.219942
  H       7.736528    -17.001581     16.066622
  H       8.072175    -17.416496     14.395096
  H       8.344528    -15.765967     14.951600
  H       9.882760    -18.038281     16.256181
  H      10.405330    -17.457383     14.678064
  H      10.535306    -16.039269     17.227838
  H      11.364041    -14.061249     13.741993
  H      10.499217    -15.634101     13.711086
  H      12.188531    -13.274207     15.661045
  H      11.768683    -14.115299     17.196333
  C      13.998001     -9.220000      7.724999
  O      15.191309     -9.899193      8.010986
  C      14.264743     -7.788380      7.255068
  H      13.329681     -9.174595      8.584877
  H      13.500575     -9.786901      6.928340
  H      15.558748     -9.526940      8.840845
  H      14.801279     -7.248917      8.031990
  H      14.880099     -7.790451      6.358009
  H      13.327509     -7.277331      7.046633
  C      14.518001     -6.670000     12.632999
  S      13.899782     -8.361194     12.917348
  H      14.324364     -6.427596     11.588086
  H      15.584270     -6.643376     12.832639
  H      13.981075     -5.996551     13.292883
  H      14.727570     -8.896186     11.999684
  C      20.972000     -6.019000     10.963999
  C      20.061154     -7.044156     11.643600
  C      18.770895     -7.465315     10.882753
  O      18.001674     -8.197214     11.587128
  O      18.581599     -7.124504      9.721042
  H      20.586780     -5.000259     11.007275
  H      21.083200     -6.287525      9.915375
  H      21.955760     -6.029906     11.433084
  H      20.620699     -7.976163     11.764286
  H      19.763821     -6.704655     12.639212
  C      19.312999    -20.521999      7.175001
  C      18.308929    -19.453848      7.513103
  C      17.156525    -19.314275      6.747381
  C      18.504394    -18.569030      8.564057
  C      16.233128    -18.326741      7.018770
  C      17.585489    -17.573451      8.848081
  C      16.436273    -17.438948      8.076170
  O      15.506636    -16.487155      8.291582
  H      19.761228    -20.307815      6.204785
  H      18.833106    -21.498088      7.117069
  H      20.102910    -20.563235      7.920568
  H      16.982074    -19.992238      5.922610
  H      19.392944    -18.652916      9.174179
  H      15.339604    -18.223857      6.421628
  H      17.760138    -16.889807      9.667197
  H      15.711249    -15.942323      9.086341
  C      19.522001    -11.465000      7.842998
  C      19.498021    -10.497533      9.022637
  N      19.549556    -11.228392     10.263161
  C      20.454992    -11.001156     11.238317
  O      21.417302    -10.260906     11.134024
  N      20.240771    -11.772613     12.368694
  H      19.317472    -10.958064      6.899981
  H      18.801686    -12.259585      8.001834
  H      20.507502    -11.923639      7.767905
  H      20.360673     -9.828351      9.008570
  H      18.594142     -9.877566      8.990914
  H      18.831455    -11.924169     10.416150
  H      20.731451    -11.440271     13.183635
  H      19.287576    -12.062041     12.540317
114
Coordinates from ORCA-job 01_xtb_cit_react E -175.328840474620
  C      16.453314    -11.113851     12.454899
  C      15.268623    -11.348248     13.340138
  C      14.144760    -11.872704     12.827635
  C      13.969979    -11.959437     11.392017
  C      14.861637    -11.457244     10.542857
  C      16.105581    -10.748344     10.996370
  C      13.075348    -12.491321     13.667379
  O      13.142392    -12.435234     14.914465
  O      12.189846    -13.130359     13.031899
  O      15.932953     -9.370937     10.775348
  O      17.245456    -12.332336     12.498323
  C      16.594856    -13.503443     12.162469
  C      16.503743    -13.832977     10.694376
  O      17.335477    -13.305746      9.929869
  O      15.601916    -14.628281     10.313920
  C      16.132025    -14.334456     13.090320
  H      17.127326    -10.348323     12.852071
  H      15.402387    -11.258844     14.407232
  H      13.065947    -12.429668     11.035517
  H      14.684407    -11.483755      9.480906
  H      16.950503    -11.089112     10.381049
  H      16.852847     -8.820669     11.062407
  H      15.679351    -15.267891     12.807480
  H      16.197067    -14.101626     14.139253
  O      13.076106    -15.384081     11.499554
  H      13.940998    -15.163479     11.122052
  H      12.781989    -14.576819     11.946480
  C      12.785000    -13.909001      5.224001
  C      13.428807    -12.548725      5.480110
  N      14.790454    -12.588455      5.978182
  C      15.193631    -12.980793      7.212122
  N      14.468716    -13.776638      7.976054
  N      16.388011    -12.596126      7.611798
  H      13.453745    -14.682279      4.845952
  H      11.988059    -13.781396      4.493493
  H      12.321718    -14.302085      6.127547
  H      13.471255    -11.997476      4.538978
  H      12.787404    -11.986514      6.171218
  H      15.399735    -11.893407      5.573751
  H      14.865734    -14.105510      8.877414
  H      13.679911    -14.278679      7.614351
  H      16.781482    -12.940616      8.532153
  H      16.791373    -11.752460      7.240083
  C       8.412999    -16.813004     15.233001
  C       9.861411    -17.174316     15.586128
  N      10.588816    -16.099938     16.225680
  C      10.999065    -14.982305     15.555557
  N      10.808163    -14.851569     14.264217
  N      11.559554    -13.987373     16.220545
  H       7.736528    -17.001581     16.066623
  H       8.073929    -17.418136     14.395745
  H       8.342629    -15.766479     14.950241
  H       9.884698    -18.035287     16.257143
  H      10.406689    -17.453324     14.679284
  H      10.533367    -16.034385     17.228941
  H      11.361501    -14.056980     13.743104
  H      10.496765    -15.629882     13.712213
  H      12.185976    -13.269472     15.661900
  H      11.765366    -14.109621     17.197144
  C      13.998001     -9.220000      7.724999
  O      15.191012     -9.900104      8.010370
  C      14.265973     -7.788348      7.256324
  H      13.329681     -9.174595      8.584877
  H      13.500815     -9.786654      6.928107
  H      15.559677     -9.527920      8.839384
  H      14.802608     -7.249818      8.033752
  H      14.881297     -7.790095      6.359248
  H      13.329379     -7.276170      7.047774
  C      14.518001     -6.670000     12.632999
  S      13.902282     -8.362610     12.915885
  H      14.324364     -6.427596     11.588086
  H      15.584192     -6.641844     12.833082
  H      13.980587     -5.997992     13.293787
  H      14.731027     -8.895974     11.997948
  C      20.972000     -6.019000     10.963999
  C      20.062351     -7.044262     11.644650
  C      18.771672     -7.465739     10.884718
  O      18.004208     -8.199699     11.588956
  O      18.580052     -7.123463      9.723837
  H      20.586780     -5.000259     11.007275
  H      21.082190     -6.287757      9.915344
  H      21.956472     -6.029609     11.431780
  H      20.621802     -7.976543     11.765160
  H      19.765719     -6.704583     12.640545
  C      19.312999    -20.521999      7.175001
  C      18.309082    -19.453677      7.513019
  C      17.157811    -19.312487      6.745865
  C      18.503086    -18.570099      8.565364
  C      16.234295    -18.325099      7.017175
  C      17.584213    -17.574646      8.849448
  C      16.436133    -17.438812      8.076122
  O      15.505965    -16.487470      8.291785
  H      19.761228    -20.307815      6.204785
  H      18.833191    -21.498111      7.117125
  H      20.102890    -20.563016      7.920643
  H      16.984571    -19.989546      5.919935
  H      19.390666    -18.655521      9.176742
  H      15.341741    -18.220906      6.418830
  H      17.757183    -16.892097      9.669752
  H      15.710390    -15.942505      9.086576
  C      19.522001    -11.465000      7.842998
  C      19.500029    -10.497051      9.022267
  N      19.551372    -11.227786     10.262840
  C      20.455940    -11.000109     11.238599
  O      21.418500    -10.260295     11.134965
  N      20.240780    -11.771402     12.369010
  H      19.317472    -10.958064      6.899981
  H      18.800204    -12.258070      8.002241
  H      20.506630    -11.925309      7.767374
  H      20.363500     -9.828902      9.007518
  H      18.596850     -9.875976      8.990358
  H      18.833299    -11.923694     10.415684
  H      20.730763    -11.438523     13.184214
  H      19.287252    -12.060030     12.540127
114
Coordinates from ORCA-job 01_xtb_cit_react E -175.328845939810
  C      16.453042    -11.113556     12.455608
  C      15.268188    -11.348744     13.340345
  C      14.144074    -11.872086     12.827405
  C      13.969499    -11.959379     11.391870
  C      14.861819    -11.457423     10.543194
  C      16.105369    -10.748183     10.996833
  C      13.073801    -12.489563     13.666939
  O      13.140150    -12.431305     14.913976
  O      12.188745    -13.129400     13.031620
  O      15.934048     -9.370861     10.774714
  O      17.245621    -12.331714     12.498265
  C      16.595143    -13.502893     12.162215
  C      16.503978    -13.832468     10.694240
  O      17.335612    -13.305105      9.929605
  O      15.602183    -14.627944     10.314128
  C      16.132775    -14.334020     13.090239
  H      17.126339    -10.347460     12.852816
  H      15.401536    -11.259549     14.407442
  H      13.065475    -12.429770     11.035648
  H      14.685300    -11.483557      9.481098
  H      16.950297    -11.089793     10.381909
  H      16.854053     -8.821358     11.062928
  H      15.680609    -15.267786     12.807402
  H      16.197244    -14.100504     14.138948
  O      13.078233    -15.384787     11.503495
  H      13.942706    -15.164263     11.124779
  H      12.783616    -14.576866     11.949000
  C      12.785000    -13.909001      5.224001
  C      13.428660    -12.548649      5.479913
  N      14.790133    -12.588247      5.978483
  C      15.193367    -12.980661      7.212428
  N      14.469003    -13.777053      7.976170
  N      16.388207    -12.596214      7.611310
  H      13.453745    -14.682279      4.845952
  H      11.987920    -13.781581      4.493622
  H      12.321986    -14.301605      6.127920
  H      13.471367    -11.997648      4.538638
  H      12.786761    -11.986279      6.170512
  H      15.398911    -11.892717      5.573959
  H      14.866242    -14.105940      8.877475
  H      13.680197    -14.279145      7.614615
  H      16.781626    -12.939919      8.532081
  H      16.790996    -11.752516      7.238979
  C       8.412999    -16.813004     15.233001
  C       9.861759    -17.170913     15.587836
  N      10.586102    -16.094493     16.227165
  C      10.995329    -14.976988     15.556445
  N      10.803795    -14.847053     14.265052
  N      11.555218    -13.981265     16.220798
  H       7.736528    -17.001581     16.066622
  H       8.075969    -17.420358     14.396479
  H       8.340672    -15.767051     14.948554
  H       9.886602    -18.031669     16.258929
  H      10.408306    -17.449131     14.681363
  H      10.530936    -16.028594     17.230322
  H      11.357878    -14.053169     13.743463
  H      10.493643    -15.626159     13.713545
  H      12.181905    -13.264137     15.662282
  H      11.760148    -14.102722     17.197748
  C      13.998001     -9.220000      7.724999
  O      15.190707     -9.901069      8.009669
  C      14.267514     -7.788686      7.256562
  H      13.329681     -9.174595      8.584877
  H      13.500933     -9.786788      6.928108
  H      15.560467     -9.529352      8.838177
  H      14.804522     -7.250820      8.034178
  H      14.882675     -7.791339      6.359400
  H      13.331846     -7.275010      7.047560
  C      14.518001     -6.670000     12.632999
  S      13.902087     -8.362530     12.916013
  H      14.324364     -6.427596     11.588086
  H      15.584183     -6.642040     12.832982
  H      13.981286     -5.997712     13.293920
  H      14.730763     -8.895917     11.998215
  C      20.972000     -6.019000     10.963999
  C      20.063110     -7.044422     11.644866
  C      18.771735     -7.465389     10.885930
  O      18.005767     -8.201534     11.589514
  O      18.577974     -7.120839      9.726052
  H      20.586780     -5.000259     11.007275
  H      21.081624     -6.287869      9.915282
  H      21.956778     -6.029219     11.431201
  H      20.622129     -7.977344     11.764163
  H      19.767567     -6.705838     12.641521
  C      19.312999    -20.521999      7.175001
  C      18.309122    -19.453697      7.512883
  C      17.158364    -19.311762      6.745033
  C      18.502112    -18.570915      8.566135
  C      16.234676    -18.324660      7.016460
  C      17.583130    -17.575844      8.850474
  C      16.435540    -17.439392      8.076515
  O      15.504823    -16.488533      8.292381
  H      19.761228    -20.307815      6.204785
  H      18.833436    -21.498225      7.117270
  H      20.102875    -20.562628      7.920727
  H      16.985947    -19.988269      5.918413
  H      19.389385    -18.656926      9.177924
  H      15.342428    -18.219921      6.417925
  H      17.754700    -16.894121      9.671698
  H      15.709436    -15.943372      9.086956
  C      19.522001    -11.465000      7.842998
  C      19.502075    -10.496479      9.021850
  N      19.552860    -11.227279     10.262391
  C      20.456711    -10.999542     11.238849
  O      21.419996    -10.260664     11.135595
  N      20.240348    -11.770356     12.369369
  H      19.317472    -10.958064      6.899981
  H      18.799137    -12.256884      8.002875
  H      20.505789    -11.926870      7.766809
  H      20.366536     -9.829682      9.006391
  H      18.599732     -9.874173      8.990017
  H      18.834692    -11.923230     10.415027
  H      20.729477    -11.436763     13.184815
  H      19.286522    -12.058325     12.539974
114
Coordinates from ORCA-job 01_xtb_cit_react E -175.328850780300
  C      16.453451    -11.112860     12.455562
  C      15.268637    -11.348488     13.340296
  C      14.144562    -11.871616     12.827191
  C      13.970073    -11.959365     11.391586
  C      14.862650    -11.457336     10.543395
  C      16.105990    -10.747809     10.996929
  C      13.073675    -12.488280     13.666765
  O      13.139547    -12.428574     14.913617
  O      12.188517    -13.128256     13.031438
  O      15.935652     -9.370646     10.773883
  O      17.246194    -12.331143     12.498231
  C      16.595518    -13.502240     12.162115
  C      16.504883    -13.831739     10.694097
  O      17.336279    -13.304235      9.929154
  O      15.603355    -14.627478     10.314140
  C      16.132911    -14.333227     13.090201
  H      17.126495    -10.346517     12.852791
  H      15.402324    -11.259326     14.407343
  H      13.065920    -12.429850     11.035785
  H      14.686706    -11.483089      9.481229
  H      16.950819    -11.090249     10.382479
  H      16.855516     -8.821219     11.063268
  H      15.681091    -15.267264     12.807552
  H      16.196755    -14.098990     14.138683
  O      13.080850    -15.384745     11.507158
  H      13.944881    -15.164577     11.127296
  H      12.785739    -14.576173     11.951307
  C      12.785000    -13.909001      5.224001
  C      13.428529    -12.548497      5.479695
  N      14.789853    -12.587822      5.978717
  C      15.193225    -12.980282      7.212601
  N      14.469326    -13.776878      7.976539
  N      16.388377    -12.596226      7.610800
  H      13.453745    -14.682279      4.845952
  H      11.987741    -13.781689      4.493842
  H      12.322451    -14.301234      6.128340
  H      13.471376    -11.997739      4.538286
  H      12.785973    -11.986121      6.169759
  H      15.397940    -11.891748      5.574214
  H      14.867137    -14.105800      8.877585
  H      13.680570    -14.279231      7.615311
  H      16.782037    -12.938962      8.531938
  H      16.791103    -11.752715      7.237751
  C       8.412999    -16.813004     15.233001
  C       9.862068    -17.168026     15.589423
  N      10.584404    -16.089944     16.228199
  C      10.993071    -14.972647     15.556904
  N      10.801352    -14.843449     14.265526
  N      11.552402    -13.976246     16.220860
  H       7.736528    -17.001581     16.066622
  H       8.077698    -17.422206     14.397223
  H       8.339176    -15.767568     14.947123
  H       9.888289    -18.028342     16.261016
  H      10.409624    -17.445937     14.683444
  H      10.529290    -16.023606     17.231369
  H      11.356026    -14.050147     13.743438
  H      10.492320    -15.623245     13.714360
  H      12.179673    -13.260020     15.662602
  H      11.756536    -14.097434     17.198048
  C      13.998001     -9.220000      7.724999
  O      15.190471     -9.901708      8.009250
  C      14.268881     -7.789277      7.255840
  H      13.329681     -9.174595      8.584877
  H      13.501190     -9.787301      6.928234
  H      15.561329     -9.529985      8.837150
  H      14.806111     -7.251623      8.033424
  H      14.884102     -7.793562      6.358756
  H      13.334159     -7.274342      7.046003
  C      14.518001     -6.670000     12.632998
  S      13.905140     -8.363991     12.915429
  H      14.324364     -6.427596     11.588086
  H      15.584206     -6.640184     12.832768
  H      13.980166     -5.998380     13.293640
  H      14.734509     -8.895060     11.996978
  C      20.972000     -6.019000     10.963999
  C      20.063413     -7.044113     11.645206
  C      18.771456     -7.464462     10.887246
  O      18.006690     -8.201940     11.590745
  O      18.575985     -7.118738      9.727993
  H      20.586780     -5.000259     11.007275
  H      21.080927     -6.288151      9.915248
  H      21.956930     -6.028890     11.430877
  H      20.621967     -7.977630     11.763464
  H      19.768933     -6.706645     12.642582
  C      19.312999    -20.521999      7.175001
  C      18.308868    -19.453883      7.512735
  C      17.158393    -19.311473      6.744388
  C      18.500984    -18.571998      8.566959
  C      16.234505    -18.324676      7.016186
  C      17.581797    -17.577355      8.851617
  C      16.434631    -17.440270      8.077104
  O      15.503467    -16.489803      8.293154
  H      19.761228    -20.307815      6.204785
  H      18.833786    -21.498411      7.117392
  H      20.102854    -20.562255      7.920808
  H      16.986489    -19.987439      5.917303
  H      19.387890    -18.658518      9.179341
  H      15.342773    -18.218825      6.416858
  H      17.752217    -16.896502      9.673753
  H      15.708385    -15.944314      9.087403
  C      19.522001    -11.465000      7.842998
  C      19.503849    -10.496000      9.021425
  N      19.554178    -11.226889     10.262023
  C      20.457818    -10.999535     11.238796
  O      21.421820    -10.261624     11.135495
  N      20.240504    -11.769683     12.369591
  H      19.317472    -10.958064      6.899981
  H      18.798581    -12.256176      8.003659
  H      20.505120    -11.928111      7.766281
  H      20.369229     -9.830420      9.005198
  H      18.602259     -9.872550      8.990054
  H      18.835990    -11.922850     10.414522
  H      20.728808    -11.435147     13.185143
  H      19.286426    -12.057189     12.539877
114
Coordinates from ORCA-job 01_xtb_cit_react E -175.328855351620
  C      16.453131    -11.113022     12.456131
  C      15.268110    -11.348884     13.340339
  C      14.144467    -11.872323     12.826746
  C      13.970455    -11.960317     11.391012
  C      14.863354    -11.457974     10.543385
  C      16.106414    -10.748227     10.997123
  C      13.072773    -12.487543     13.666378
  O      13.137571    -12.425851     14.913031
  O      12.187430    -13.127295     13.030972
  O      15.936711     -9.371207     10.772863
  O      17.246262    -12.331411     12.498631
  C      16.595462    -13.502404     12.162186
  C      16.505573    -13.831737     10.694064
  O      17.336767    -13.303998      9.929035
  O      15.604389    -14.627716     10.313959
  C      16.132254    -14.333136     13.090188
  H      17.126120    -10.346958     12.854011
  H      15.402018    -11.259459     14.407315
  H      13.066197    -12.430912     11.035461
  H      14.688186    -11.483586      9.481023
  H      16.951479    -11.091400     10.383401
  H      16.856385     -8.821832     11.063320
  H      15.680732    -15.267430     12.807998
  H      16.195332    -14.098239     14.138646
  O      13.083050    -15.384784     11.510883
  H      13.946623    -15.164920     11.129760
  H      12.787632    -14.575790     11.953878
  C      12.785000    -13.909001      5.224001
  C      13.428451    -12.548443      5.479898
  N      14.789734    -12.587743      5.978976
  C      15.193403    -12.980653      7.212547
  N      14.470004    -13.777665      7.976553
  N      16.388758    -12.596754      7.610361
  H      13.453745    -14.682279      4.845952
  H      11.987735    -13.781490      4.493914
  H      12.322706    -14.301256      6.128501
  H      13.471288    -11.997567      4.538555
  H      12.785404    -11.986371      6.169799
  H      15.396984    -11.890564      5.575040
  H      14.868197    -14.106381      8.877424
  H      13.680768    -14.279664      7.615914
  H      16.782462    -12.938669      8.531937
  H      16.791777    -11.753490      7.237215
  C       8.412999    -16.813004     15.233001
  C       9.862415    -17.164891     15.590847
  N      10.581977    -16.084878     16.229338
  C      10.989767    -14.967812     15.557393
  N      10.798344    -14.840001     14.265870
  N      11.547686    -13.970211     16.220960
  H       7.736528    -17.001581     16.066623
  H       8.079266    -17.424208     14.398144
  H       8.337620    -15.768072     14.945467
  H       9.890028    -18.024649     16.262905
  H      10.411489    -17.442082     14.685485
  H      10.527362    -16.018735     17.232558
  H      11.353500    -14.047299     13.742945
  H      10.490901    -15.620806     13.715207
  H      12.175760    -13.255077     15.662754
  H      11.751458    -14.091110     17.198316
  C      13.998001     -9.220000      7.724999
  O      15.189949     -9.902717      8.008883
  C      14.270653     -7.789932      7.254970
  H      13.329681     -9.174595      8.584877
  H      13.501262     -9.787476      6.928223
  H      15.562077     -9.531390      8.836461
  H      14.808274     -7.252687      8.032568
  H      14.886218     -7.796141      6.358160
  H      13.337017     -7.273585      7.044277
  C      14.518001     -6.670000     12.632999
  S      13.905121     -8.363621     12.915893
  H      14.324364     -6.427596     11.588086
  H      15.584090     -6.640160     12.832523
  H      13.979959     -5.997750     13.292830
  H      14.734244     -8.894778     11.997551
  C      20.972000     -6.019000     10.963999
  C      20.063433     -7.044071     11.645208
  C      18.770609     -7.463429     10.888237
  O      18.007253     -8.202820     11.591345
  O      18.573242     -7.115492      9.729953
  H      20.586780     -5.000259     11.007275
  H      21.080578     -6.288220      9.915202
  H      21.956869     -6.028649     11.430925
  H      20.621778     -7.977886     11.762106
  H      19.770051     -6.707878     12.643328
  C      19.312999    -20.521999      7.175001
  C      18.308291    -19.454457      7.512763
  C      17.157610    -19.312684      6.744588
  C      18.499945    -18.572990      8.567401
  C      16.233257    -18.326493      7.016803
  C      17.580114    -17.579096      8.852497
  C      16.432834    -17.442366      8.078050
  O      15.501192    -16.492430      8.294406
  H      19.761228    -20.307815      6.204785
  H      18.834278    -21.498700      7.117546
  H      20.102887    -20.561838      7.920840
  H      16.986064    -19.988323      5.917273
  H      19.386936    -18.659073      9.179786
  H      15.341275    -18.220987      6.417920
  H      17.749655    -16.898622      9.675156
  H      15.706778    -15.946499      9.088058
  C      19.522001    -11.465000      7.842998
  C      19.505156    -10.495753      9.021221
  N      19.555028    -11.226891     10.261778
  C      20.458706    -11.000064     11.238663
  O      21.423228    -10.262791     11.135076
  N      20.240920    -11.769819     12.369514
  H      19.317472    -10.958064      6.899981
  H      18.798499    -12.255957      8.004444
  H      20.504787    -11.928833      7.765899
  H      20.371231     -9.831203      9.004542
  H      18.604154     -9.871476      8.990574
  H      18.836830    -11.922887     10.413944
  H      20.728560    -11.434286     13.185125
  H      19.286676    -12.056871     12.539564
114
Coordinates from ORCA-job 01_xtb_cit_react E -175.328859536110
  C      16.453107    -11.113373     12.455577
  C      15.267700    -11.348839     13.339471
  C      14.144529    -11.873050     12.825546
  C      13.971195    -11.961394     11.389660
  C      14.864280    -11.458785     10.542478
  C      16.107334    -10.749049     10.996585
  C      13.072221    -12.487017     13.665366
  O      13.135892    -12.424033     14.911816
  O      12.186647    -13.126502     13.029814
  O      15.937966     -9.372206     10.771576
  O      17.246151    -12.332142     12.498580
  C      16.595469    -13.503118     12.162001
  C      16.506436    -13.832371     10.693735
  O      17.337406    -13.304369      9.928633
  O      15.605729    -14.628670     10.313256
  C      16.131403    -14.333530     13.089771
  H      17.126554    -10.347817     12.853807
  H      15.401782    -11.259050     14.406355
  H      13.067092    -12.432287     11.033945
  H      14.689940    -11.484459      9.480003
  H      16.952681    -11.093053     10.383753
  H      16.857338     -8.822491     11.062997
  H      15.679858    -15.267913     12.808041
  H      16.194172    -14.098275     14.138141
  O      13.085185    -15.385111     11.513124
  H      13.948286    -15.165472     11.130995
  H      12.789470    -14.575611     11.954939
  C      12.785000    -13.909001      5.224001
  C      13.428351    -12.548382      5.480029
  N      14.789719    -12.587554      5.978877
  C      15.193907    -12.981023      7.212046
  N      14.470796    -13.778149      7.976330
  N      16.389366    -12.597360      7.609666
  H      13.453745    -14.682279      4.845952
  H      11.987727    -13.781337      4.493976
  H      12.322875    -14.301517      6.128480
  H      13.471041    -11.997395      4.538741
  H      12.785016    -11.986632      6.169942
  H      15.396357    -11.889473      5.575554
  H      14.869437    -14.106819      8.877015
  H      13.681243    -14.279897      7.616190
  H      16.783094    -12.938460      8.531544
  H      16.792962    -11.754401      7.236356
  C       8.412999    -16.813004     15.233001
  C       9.862618    -17.162700     15.591828
  N      10.580527    -16.081207     16.229859
  C      10.987694    -14.964357     15.557260
  N      10.796882    -14.837754     14.265615
  N      11.544154    -13.965721     16.220555
  H       7.736528    -17.001581     16.066622
  H       8.080268    -17.425755     14.398804
  H       8.336635    -15.768545     14.944224
  H       9.891070    -18.021584     16.264948
  H      10.412577    -17.440000     14.687124
  H      10.526173    -16.015058     17.233161
  H      11.352194    -14.045389     13.741752
  H      10.490680    -15.619327     13.715496
  H      12.172841    -13.251261     15.662221
  H      11.747810    -14.086366     17.197967
  C      13.998001     -9.220000      7.724999
  O      15.189669     -9.903350      8.008586
  C      14.271690     -7.790394      7.254104
  H      13.329681     -9.174595      8.584877
  H      13.501238     -9.787557      6.928179
  H      15.563005     -9.532019      8.835866
  H      14.809634     -7.253388      8.031698
  H      14.887632     -7.798114      6.357565
  H      13.338789     -7.273122      7.042808
  C      14.518001     -6.670000     12.632999
  S      13.908095     -8.364717     12.915546
  H      14.324364     -6.427596     11.588086
  H      15.584036     -6.638144     12.832573
  H      13.978093     -5.998511     13.292221
  H      14.737913     -8.893762     11.996577
  C      20.972000     -6.019000     10.963999
  C      20.063333     -7.043972     11.645355
  C      18.770154     -7.463062     10.888951
  O      18.007830     -8.203775     11.591727
  O      18.571849     -7.113926      9.731195
  H      20.586780     -5.000259     11.007275
  H      21.080427     -6.288325      9.915154
  H      21.956781     -6.028616     11.431072
  H      20.622009     -7.977582     11.761720
  H      19.770467     -6.708087     12.643651
  C      19.312999    -20.521999      7.175001
  C      18.307348    -19.455299      7.512789
  C      17.156538    -19.314336      6.744585
  C      18.498470    -18.574220      8.567827
  C      16.231456    -18.328897      7.017236
  C      17.577757    -17.581159      8.853255
  C      16.430450    -17.444946      8.078730
  O      15.498380    -16.495558      8.295463
  H      19.761228    -20.307815      6.204785
  H      18.834918    -21.499044      7.117674
  H      20.102868    -20.561347      7.920849
  H      16.985271    -19.989749      5.917171
  H      19.385484    -18.659578      9.180245
  H      15.339444    -18.223643      6.418178
  H      17.746606    -16.900950      9.676299
  H      15.704629    -15.949121      9.088527
  C      19.522001    -11.465000      7.842998
  C      19.505623    -10.495871      9.021322
  N      19.555438    -11.227254     10.261806
  C      20.459344    -11.000892     11.238677
  O      21.423805    -10.263440     11.135003
  N      20.241565    -11.770672     12.369518
  H      19.317472    -10.958064      6.899981
  H      18.798985    -12.256345      8.005008
  H      20.504911    -11.928655      7.765747
  H      20.372026     -9.831745      9.004481
  H      18.604873     -9.871181      8.991572
  H      18.837467    -11.923472     10.413632
  H      20.729000    -11.434861     13.185082
  H      19.287269    -12.057734     12.539464
114
Coordinates from ORCA-job 01_xtb_cit_react E -175.328863201000
  C      16.453029    -11.114208     12.455655
  C      15.267129    -11.348969     13.339076
  C      14.144402    -11.873648     12.824625
  C      13.971928    -11.962234     11.388647
  C      14.865161    -11.459527     10.541685
  C      16.108203    -10.750039     10.996375
  C      13.071428    -12.486193     13.664464
  O      13.133867    -12.422082     14.910806
  O      12.185783    -13.125439     13.028742
  O      15.938873     -9.373300     10.770798
  O      17.246043    -12.333143     12.498806
  C      16.595670    -13.504128     12.161808
  C      16.507051    -13.833300     10.693409
  O      17.337828    -13.304931      9.928437
  O      15.606632    -14.629737     10.312420
  C      16.130620    -14.334281     13.089285
  H      17.127026    -10.349386     12.854345
  H      15.400785    -11.258586     14.406005
  H      13.068140    -12.433356     11.032351
  H      14.691510    -11.485254      9.479094
  H      16.954063    -11.094597     10.384459
  H      16.858237     -8.823638     11.062709
  H      15.679044    -15.268634     12.807837
  H      16.193065    -14.098982     14.137778
  O      13.086987    -15.385181     11.515121
  H      13.949654    -15.165628     11.132009
  H      12.791251    -14.575293     11.956011
  C      12.785000    -13.909001      5.224001
  C      13.428071    -12.548330      5.480430
  N      14.789609    -12.587209      5.978845
  C      15.194383    -12.981336      7.211592
  N      14.471645    -13.778739      7.975977
  N      16.389824    -12.597683      7.609143
  H      13.453745    -14.682279      4.845952
  H      11.987832    -13.781225      4.493881
  H      12.322703    -14.302041      6.128154
  H      13.470480    -11.997021      4.539323
  H      12.784683    -11.987074      6.170671
  H      15.395742    -11.888211      5.576450
  H      14.870541    -14.107266      8.876603
  H      13.681433    -14.279898      7.616388
  H      16.783430    -12.938294      8.531195
  H      16.793984    -11.754971      7.236016
  C       8.412999    -16.813004     15.233001
  C       9.863022    -17.160529     15.592376
  N      10.579053    -16.077687     16.230168
  C      10.985768    -14.961032     15.557048
  N      10.795822    -14.835569     14.265188
  N      11.540613    -13.961299     16.220198
  H       7.736528    -17.001581     16.066623
  H       8.081083    -17.427020     14.399476
  H       8.335513    -15.768950     14.943043
  H       9.892162    -18.018740     16.266387
  H      10.413876    -17.437667     14.688255
  H      10.525170    -16.011664     17.233551
  H      11.351083    -14.043436     13.740463
  H      10.490726    -15.617987     13.715598
  H      12.169758    -13.247343     15.661732
  H      11.744388    -14.081536     17.197625
  C      13.998001     -9.220000      7.724999
  O      15.189306     -9.904042      8.008244
  C      14.272405     -7.790549      7.254014
  H      13.329681     -9.174595      8.584877
  H      13.501027     -9.787078      6.927950
  H      15.563684     -9.532882      8.835306
  H      14.810711     -7.253994      8.031686
  H      14.888581     -7.798825      6.357627
  H      13.339893     -7.272683      7.042701
  C      14.518001     -6.670000     12.632999
  S      13.909278     -8.364927     12.915246
  H      14.324364     -6.427596     11.588086
  H      15.583963     -6.637247     12.832739
  H      13.977092     -5.998975     13.291978
  H      14.739479     -8.893352     11.996194
  C      20.972000     -6.019000     10.963999
  C      20.063320     -7.044145     11.645633
  C      18.769717     -7.462935     10.889686
  O      18.008641     -8.205394     11.592028
  O      18.570129     -7.112105      9.732664
  H      20.586780     -5.000259     11.007275
  H      21.080331     -6.288291      9.915148
  H      21.956791     -6.028787     11.431006
  H      20.622432     -7.977357     11.761799
  H      19.770793     -6.707925     12.643908
  C      19.312999    -20.521999      7.175001
  C      18.306419    -19.456131      7.512950
  C      17.155359    -19.316268      6.744995
  C      18.497169    -18.575112      8.568037
  C      16.229489    -18.331577      7.017870
  C      17.575451    -17.582904      8.853760
  C      16.428033    -17.447511      8.079287
  O      15.495554    -16.498698      8.296517
  H      19.761228    -20.307815      6.204785
  H      18.835475    -21.499357      7.117712
  H      20.102877    -20.560985      7.920841
  H      16.984370    -19.991571      5.917450
  H      19.384197    -18.659672      9.180508
  H      15.337229    -18.227241      6.419030
  H      17.743859    -16.902727      9.676959
  H      15.702489    -15.951806      9.089026
  C      19.522001    -11.465000      7.842998
  C      19.505831    -10.496145      9.021595
  N      19.555676    -11.227637     10.262011
  C      20.459927    -11.001611     11.238620
  O      21.424045    -10.263670     11.134779
  N      20.242552    -11.771700     12.369281
  H      19.317472    -10.958064      6.899981
  H      18.799598    -12.256846      8.005479
  H      20.505258    -11.928137      7.765637
  H      20.372380     -9.832232      9.004864
  H      18.605221     -9.871229      8.992656
  H      18.837786    -11.923961     10.413467
  H      20.730112    -11.435942     13.184815
  H      19.288238    -12.058751     12.539041
114
Coordinates from ORCA-job 01_xtb_cit_react E -175.328866393700
  C      16.452829    -11.115528     12.455106
  C      15.266369    -11.349726     13.337889
  C      14.143797    -11.874423     12.822931
  C      13.972280    -11.963392     11.386970
  C      14.865852    -11.460718     10.540251
  C      16.108871    -10.751456     10.995751
  C      13.070079    -12.485531     13.662733
  O      13.131594    -12.420466     14.909057
  O      12.184440    -13.124785     13.026988
  O      15.939569     -9.374777     10.769998
  O      17.245676    -12.334463     12.498588
  C      16.595797    -13.505582     12.161288
  C      16.507453    -13.834868     10.692813
  O      17.338239    -13.306252      9.928041
  O      15.607175    -14.631366     10.311405
  C      16.129860    -14.335495     13.088486
  H      17.127081    -10.351059     12.854017
  H      15.399139    -11.258782     14.404900
  H      13.068937    -12.434660     11.029788
  H      14.692929    -11.486619      9.477602
  H      16.955293    -11.096455     10.384771
  H      16.858944     -8.825220     11.062234
  H      15.678340    -15.269874     12.807083
  H      16.192020    -14.100330     14.137028
  O      13.088136    -15.385752     11.515857
  H      13.950415    -15.166065     11.132041
  H      12.792308    -14.575470     11.955929
  C      12.785000    -13.909001      5.224001
  C      13.427731    -12.548303      5.480919
  N      14.789522    -12.586916      5.978682
  C      15.194885    -12.981685      7.211070
  N      14.472426    -13.779311      7.975480
  N      16.390307    -12.597963      7.608611
  H      13.453745    -14.682279      4.845952
  H      11.987968    -13.781206      4.493708
  H      12.322345    -14.302537      6.127748
  H      13.469686    -11.996530      4.540062
  H      12.784587    -11.987545      6.171780
  H      15.395290    -11.887097      5.577200
  H      14.871443    -14.107812      8.876148
  H      13.681549    -14.279738      7.616351
  H      16.783732    -12.938364      8.530639
  H      16.794967    -11.755500      7.235497
  C       8.412999    -16.813004     15.233001
  C       9.863218    -17.159224     15.592737
  N      10.578019    -16.075357     16.230191
  C      10.984268    -14.958825     15.556560
  N      10.795022    -14.834405     14.264504
  N      11.537679    -13.958131     16.219433
  H       7.736528    -17.001581     16.066623
  H       8.081622    -17.427874     14.399816
  H       8.334720    -15.769273     14.942256
  H       9.892547    -18.016802     16.267550
  H      10.414593    -17.436636     14.689039
  H      10.524373    -16.008975     17.233532
  H      11.349844    -14.042364     13.738842
  H      10.490572    -15.617540     13.715632
  H      12.166802    -13.244296     15.660700
  H      11.741590    -14.077588     17.196894
  C      13.998001     -9.220000      7.724999
  O      15.189106     -9.904544      8.007578
  C      14.272504     -7.790239      7.254716
  H      13.329681     -9.174595      8.584877
  H      13.500620     -9.786291      6.927623
  H      15.564275     -9.533664      8.834486
  H      14.811177     -7.254233      8.032545
  H      14.888535     -7.797982      6.358221
  H      13.339988     -7.272142      7.043952
  C      14.518001     -6.670000     12.632999
  S      13.911030     -8.365589     12.914595
  H      14.324364     -6.427596     11.588086
  H      15.583917     -6.636094     12.833020
  H      13.976245     -5.999925     13.292304
  H      14.741844     -8.893124     11.995362
  C      20.972000     -6.019000     10.963999
  C      20.063468     -7.044457     11.645742
  C      18.769815     -7.463395     10.889895
  O      18.009708     -8.207465     11.591598
  O      18.569354     -7.111279      9.733439
  H      20.586780     -5.000259     11.007275
  H      21.080552     -6.288191      9.915137
  H      21.956815     -6.028998     11.431005
  H      20.623025     -7.977241     11.762104
  H      19.770919     -6.707557     12.643763
  C      19.312999    -20.521999      7.175001
  C      18.305499    -19.456980      7.513000
  C      17.154214    -19.318244      6.745214
  C      18.495758    -18.575788      8.568003
  C      16.227373    -18.334414      7.018220
  C      17.572997    -17.584505      8.853925
  C      16.425372    -17.450170      8.079596
  O      15.492318    -16.502092      8.297364
  H      19.761228    -20.307815      6.204785
  H      18.836127    -21.499680      7.117775
  H      20.102837    -20.560449      7.920861
  H      16.983527    -19.993714      5.917699
  H      19.382990    -18.659273      9.180207
  H      15.334847    -18.231249      6.419566
  H      17.741025    -16.904240      9.677134
  H      15.699787    -15.954675      9.089352
  C      19.522001    -11.465000      7.842998
  C      19.505307    -10.496624      9.022007
  N      19.555402    -11.228202     10.262350
  C      20.459889    -11.002191     11.238767
  O      21.423443    -10.263435     11.135021
  N      20.243070    -11.772754     12.369236
  H      19.317472    -10.958064      6.899981
  H      18.800491    -12.257656      8.005660
  H      20.505844    -11.927056      7.765682
  H      20.371617     -9.832372      9.005628
  H      18.604502     -9.871954      8.993594
  H      18.837752    -11.924851     10.413433
  H      20.730974    -11.437543     13.184738
  H      19.288858    -12.060230     12.538829
114
Coordinates from ORCA-job 01_xtb_cit_react E -175.328869421540
  C      16.453039    -11.116630     12.455177
  C      15.265988    -11.350358     13.337402
  C      14.143463    -11.874457     12.821780
  C      13.972980    -11.963878     11.385798
  C      14.866856    -11.461327     10.539286
  C      16.109695    -10.752232     10.995514
  C      13.068913    -12.484355     13.661156
  O      13.129832    -12.418648     14.907506
  O      12.183313    -13.123585     13.025348
  O      15.940247     -9.375587     10.769821
  O      17.245753    -12.335468     12.498433
  C      16.596215    -13.506579     12.160466
  C      16.507939    -13.835890     10.691969
  O      17.338755    -13.307022      9.927484
  O      15.607671    -14.632376     10.310283
  C      16.129497    -14.336405     13.087364
  H      17.127284    -10.352280     12.854289
  H      15.397405    -11.258959     14.404608
  H      13.070010    -12.435074     11.027582
  H      14.694316    -11.487324      9.476609
  H      16.956686    -11.097341     10.385257
  H      16.859767     -8.826186     11.061907
  H      15.678202    -15.270804     12.805706
  H      16.191234    -14.101583     14.136034
  O      13.089575    -15.385768     11.517120
  H      13.951461    -15.165899     11.132421
  H      12.793698    -14.575029     11.956410
  C      12.785000    -13.909001      5.224001
  C      13.427177    -12.548181      5.481367
  N      14.789210    -12.586184      5.978547
  C      15.195150    -12.981407      7.210670
  N      14.473181    -13.779414      7.975040
  N      16.390496    -12.597425      7.608127
  H      13.453745    -14.682279      4.845952
  H      11.988042    -13.781371      4.493571
  H      12.322026    -14.302903      6.127411
  H      13.468539    -11.995932      4.540768
  H      12.784275    -11.987982      6.172904
  H      15.394483    -11.885460      5.577998
  H      14.872386    -14.107898      8.875737
  H      13.681377    -14.278911      7.616479
  H      16.783788    -12.937800      8.529978
  H      16.795326    -11.755098      7.234947
  C       8.412999    -16.813004     15.233001
  C       9.863482    -17.157664     15.593330
  N      10.576939    -16.072688     16.230173
  C      10.983045    -14.956454     15.555944
  N      10.794556    -14.833019     14.263655
  N      11.535215    -13.954886     16.218562
  H       7.736528    -17.001581     16.066622
  H       8.082423    -17.428806     14.400194
  H       8.333614    -15.769650     14.941366
  H       9.893125    -18.014700     16.268969
  H      10.415261    -17.435450     14.690067
  H      10.523466    -16.005489     17.233482
  H      11.348815    -14.041088     13.737213
  H      10.490423    -15.616882     13.715554
  H      12.164215    -13.241217     15.659734
  H      11.739052    -14.073415     17.196129
  C      13.998001     -9.220000      7.724999
  O      15.189010     -9.904820      8.006872
  C      14.272174     -7.789778      7.255903
  H      13.329681     -9.174595      8.584877
  H      13.500179     -9.785342      6.927294
  H      15.564681     -9.534104      8.833513
  H      14.811257     -7.254287      8.033785
  H      14.887643     -7.796378      6.358994
  H      13.339314     -7.271748      7.046247
  C      14.518001     -6.670000     12.632999
  S      13.912076     -8.366037     12.913974
  H      14.324364     -6.427596     11.588086
  H      15.583974     -6.635425     12.833134
  H      13.975996     -6.000708     13.292836
  H      14.743416     -8.893058     11.994772
  C      20.972000     -6.019000     10.963999
  C      20.063629     -7.044593     11.646000
  C      18.769775     -7.463347     10.890403
  O      18.010815     -8.209287     11.591368
  O      18.567984     -7.109444      9.734702
  H      20.586780     -5.000259     11.007275
  H      21.080651     -6.288121      9.915172
  H      21.956914     -6.029219     11.430825
  H      20.623186     -7.977344     11.762659
  H      19.771192     -6.706926     12.643870
  C      19.312999    -20.521999      7.175001
  C      18.304872    -19.457522      7.512971
  C      17.153438    -19.319552      6.745346
  C      18.494532    -18.576194      8.567970
  C      16.225800    -18.336374      7.018310
  C      17.570939    -17.585682      8.853999
  C      16.423252    -17.452061      8.079682
  O      15.489663    -16.504619      8.297922
  H      19.761228    -20.307815      6.204785
  H      18.836602    -21.499916      7.117786
  H      20.102780    -20.560028      7.920930
  H      16.983142    -19.995141      5.917744
  H      19.381718    -18.659175      9.180326
  H      15.333183    -18.234117      6.419648
  H      17.738582    -16.905509      9.677344
  H      15.697608    -15.956819      9.089509
  C      19.522001    -11.465000      7.842998
  C      19.505437    -10.496824      9.022258
  N      19.555396    -11.228346     10.262600
  C      20.459995    -11.002407     11.238885
  O      21.423264    -10.263282     11.135234
  N      20.243379    -11.773276     12.369186
  H      19.317472    -10.958064      6.899981
  H      18.801016    -12.258034      8.006029
  H      20.506162    -11.926539      7.765488
  H      20.371876     -9.832703      9.006142
  H      18.604776     -9.871889      8.994207
  H      18.837641    -11.924982     10.413350
  H      20.731442    -11.438713     13.184861
  H      19.289226    -12.061151     12.538317
114
Coordinates from ORCA-job 01_xtb_cit_react E -175.328872172550
  C      16.453019    -11.118418     12.454598
  C      15.265625    -11.352236     13.336081
  C      14.142851    -11.875487     12.819954
  C      13.973179    -11.965148     11.384064
  C      14.867590    -11.462628     10.537967
  C      16.110200    -10.753583     10.994927
  C      13.067404    -12.484168     13.659012
  O      13.128219    -12.417771     14.905426
  O      12.181680    -13.123375     13.023350
  O      15.940888     -9.376897     10.769447
  O      17.245723    -12.336972     12.497791
  C      16.596323    -13.508098     12.159446
  C      16.508322    -13.837533     10.690904
  O      17.339427    -13.308714      9.926671
  O      15.607886    -14.633874     10.309140
  C      16.129011    -14.337801     13.086165
  H      17.126691    -10.353748     12.853999
  H      15.395739    -11.260454     14.403435
  H      13.070397    -12.435921     11.024928
  H      14.695476    -11.488784      9.475272
  H      16.957663    -11.098660     10.385328
  H      16.860569     -8.827710     11.061401
  H      15.677968    -15.272315     12.804179
  H      16.190079    -14.103190     14.134904
  O      13.090103    -15.386223     11.517263
  H      13.951661    -15.166065     11.131994
  H      12.793940    -14.575187     11.955932
  C      12.785000    -13.909001      5.224001
  C      13.426795    -12.548115      5.481902
  N      14.789131    -12.585836      5.978290
  C      15.195465    -12.981388      7.210242
  N      14.473880    -13.779733      7.974511
  N      16.390755    -12.597149      7.607680
  H      13.453745    -14.682279      4.845952
  H      11.988153    -13.781446      4.493401
  H      12.321708    -14.303096      6.127187
  H      13.467399    -11.995220      4.541651
  H      12.784334    -11.988482      6.174326
  H      15.393836    -11.884242      5.578478
  H      14.873108    -14.108249      8.875273
  H      13.681158    -14.278163      7.616492
  H      16.783913    -12.937783      8.529264
  H      16.795824    -11.755107      7.234141
  C       8.412999    -16.813004     15.233001
  C       9.863536    -17.157107     15.593797
  N      10.576306    -16.071406     16.230058
  C      10.982072    -14.955380     15.555285
  N      10.794054    -14.833009     14.262819
  N      11.533235    -13.953013     16.217485
  H       7.736528    -17.001581     16.066623
  H       8.082841    -17.429183     14.400304
  H       8.333004    -15.769812     14.940964
  H       9.893109    -18.013845     16.269731
  H      10.415650    -17.435329     14.690725
  H      10.522731    -16.003279     17.233186
  H      11.347525    -14.041169     13.735585
  H      10.489919    -15.617458     13.715589
  H      12.161852    -13.239414     15.658441
  H      11.737128    -14.070548     17.195151
  C      13.998001     -9.220000      7.724999
  O      15.188876     -9.905142      8.005965
  C      14.271816     -7.789012      7.257573
  H      13.329681     -9.174595      8.584877
  H      13.499662     -9.784223      6.926857
  H      15.564936     -9.534784      8.832407
  H      14.811319     -7.254197      8.035625
  H      14.886548     -7.793851      6.360167
  H      13.338483     -7.271155      7.049275
  C      14.518001     -6.670000     12.632999
  S      13.913368     -8.366708     12.913500
  H      14.324364     -6.427596     11.588086
  H      15.583952     -6.634862     12.833243
  H      13.975975     -6.001402     13.293440
  H      14.745167     -8.893426     11.994320
  C      20.972000     -6.019000     10.963999
  C      20.063759     -7.044709     11.645853
  C      18.769957     -7.463456     10.890225
  O      18.012015     -8.211215     11.590452
  O      18.566979     -7.108035      9.735234
  H      20.586780     -5.000259     11.007275
  H      21.081041     -6.287969      9.915207
  H      21.956891     -6.029253     11.430922
  H      20.623012     -7.977589     11.762768
  H      19.771268     -6.706798     12.643656
  C      19.312999    -20.521999      7.175001
  C      18.304248    -19.458120      7.512809
  C      17.152515    -19.321153      6.745451
  C      18.493275    -18.576340      8.567599
  C      16.223920    -18.338821      7.018416
  C      17.568834    -17.586718      8.853696
  C      16.420761    -17.454267      8.079727
  O      15.486268    -16.507791      8.298419
  H      19.761228    -20.307815      6.204785
  H      18.837245    -21.500217      7.117924
  H      20.102720    -20.559331      7.921037
  H      16.982659    -19.997134      5.917983
  H      19.380809    -18.658366      9.179551
  H      15.331071    -18.237721      6.419913
  H      17.736031    -16.906433      9.677019
  H      15.694541    -15.959364      9.089494
  C      19.522001    -11.465000      7.842998
  C      19.504639    -10.497148      9.022435
  N      19.554726    -11.228832     10.262707
  C      20.459373    -11.002762     11.238891
  O      21.422389    -10.263278     11.135366
  N      20.243113    -11.773954     12.369009
  H      19.317472    -10.958064      6.899981
  H      18.801841    -12.258750      8.006083
  H      20.506597    -11.925608      7.765562
  H      20.370657     -9.832482      9.006748
  H      18.603642     -9.872703      8.994427
  H      18.837162    -11.925824     10.413113
  H      20.731195    -11.439948     13.184862
  H      19.289177    -12.062718     12.537869
114
Coordinates from ORCA-job 01_xtb_cit_react E -175.328874610440
  C      16.453555    -11.119523     12.454716
  C      15.265827    -11.353441     13.335834
  C      14.142906    -11.875727     12.819260
  C      13.973865    -11.965639     11.383252
  C      14.868587    -11.463094     10.537515
  C      16.110871    -10.753919     10.994812
  C      13.066791    -12.483901     13.657736
  O      13.127786    -12.417392     14.904187
  O      12.180901    -13.122844     13.022070
  O      15.941414     -9.377188     10.769801
  O      17.246270    -12.337953     12.497262
  C      16.596618    -13.508835     12.158303
  C      16.508921    -13.838093     10.689728
  O      17.340256    -13.309368      9.925732
  O      15.608327    -14.634319     10.308020
  C      16.129113    -14.338644     13.084848
  H      17.126663    -10.354463     12.854426
  H      15.394845    -11.261605     14.403354
  H      13.071046    -12.435945     11.023477
  H      14.696389    -11.489330      9.474823
  H      16.958588    -11.098540     10.385309
  H      16.861113     -8.827852     11.061308
  H      15.678196    -15.273132     12.802442
  H      16.189836    -14.104353     14.133640
  O      13.091075    -15.386071     11.518070
  H      13.952323    -15.165672     11.132094
  H      12.794605    -14.574709     11.956167
  C      12.785000    -13.909001      5.224001
  C      13.426503    -12.547997      5.482008
  N      14.789034    -12.585358      5.977918
  C      15.195619    -12.980908      7.209815
  N      14.474518    -13.779656      7.974000
  N      16.390811    -12.596249      7.607240
  H      13.453745    -14.682279      4.845952
  H      11.988109    -13.781597      4.493418
  H      12.321758    -14.303014      6.127263
  H      13.466498    -11.994783      4.541922
  H      12.784239    -11.988719      6.174927
  H      15.393083    -11.882985      5.578456
  H      14.873927    -14.108196      8.874741
  H      13.680920    -14.277142      7.616511
  H      16.783917    -12.937165      8.528561
  H      16.795691    -11.754319      7.233255
  C       8.412999    -16.813004     15.233001
  C       9.863484    -17.156480     15.594534
  N      10.575714    -16.070124     16.230031
  C      10.981483    -14.954465     15.554679
  N      10.793996    -14.832963     14.262055
  N      11.531996    -13.951554     16.216576
  H       7.736528    -17.001581     16.066622
  H       8.083386    -17.429657     14.400424
  H       8.332452    -15.770016     14.940559
  H       9.893184    -18.012899     16.270919
  H      10.415691    -17.435284     14.691724
  H      10.521827    -16.000986     17.233112
  H      11.346947    -14.041249     13.734421
  H      10.489674    -15.617834     13.715438
  H      12.160465    -13.238188     15.657506
  H      11.735691    -14.068436     17.194368
  C      13.998001     -9.220000      7.724999
  O      15.188942     -9.905058      8.005518
  C      14.271287     -7.788538      7.258695
  H      13.329681     -9.174595      8.584877
  H      13.499399     -9.783583      6.926641
  H      15.565034     -9.534646      8.831726
  H      14.811147     -7.254039      8.036683
  H      14.885238     -7.792078      6.360740
  H      13.337405     -7.271026      7.051691
  C      14.518001     -6.670000     12.632999
  S      13.914135     -8.367130     12.913371
  H      14.324364     -6.427596     11.588086
  H      15.583998     -6.634420     12.833147
  H      13.975876     -6.001815     13.293638
  H      14.746170     -8.893597     11.994323
  C      20.972000     -6.019000     10.963999
  C      20.063664     -7.044370     11.645857
  C      18.769626     -7.462656     10.890513
  O      18.012599     -8.211876     11.590100
  O      18.565437     -7.105413      9.736265
  H      20.586780     -5.000259     11.007275
  H      21.081186     -6.287953      9.915251
  H      21.956855     -6.029186     11.430987
  H      20.622282     -7.977771     11.762864
  H      19.771366     -6.706463     12.643786
  C      19.312999    -20.521999      7.175001
  C      18.304020    -19.458320      7.512573
  C      17.152225    -19.321663      6.745251
  C      18.492415    -18.576447      8.567486
  C      16.223135    -18.339771      7.018171
  C      17.567593    -17.587286      8.853545
  C      16.419428    -17.455263      8.079615
  O      15.484326    -16.509367      8.298455
  H      19.761228    -20.307815      6.204785
  H      18.837575    -21.500382      7.118034
  H      20.102667    -20.558899      7.921153
  H      16.982796    -19.997806      5.917816
  H      19.379906    -18.658398      9.179617
  H      15.330310    -18.239087      6.419575
  H      17.734357    -16.907181      9.677081
  H      15.692845    -15.960619      9.089221
  C      19.522001    -11.465000      7.842998
  C      19.505065    -10.496948      9.022322
  N      19.554691    -11.228742     10.262580
  C      20.459185    -11.002902     11.238941
  O      21.422443    -10.263754     11.135667
  N      20.242582    -11.774221     12.368883
  H      19.317472    -10.958064      6.899981
  H      18.801872    -12.258680      8.006408
  H      20.506466    -11.925901      7.765316
  H      20.371388     -9.832659      9.006718
  H      18.604340     -9.872072      8.994237
  H      18.836887    -11.925541     10.412736
  H      20.730143    -11.440551     13.185207
  H      19.288770    -12.063659     12.537204
114
Coordinates from ORCA-job 01_xtb_cit_react E -175.328876932360
  C      16.453893    -11.120967     12.454297
  C      15.266246    -11.355278     13.335135
  C      14.143080    -11.876985     12.818449
  C      13.974149    -11.966655     11.382430
  C      14.869178    -11.463986     10.537066
  C      16.111237    -10.754724     10.994505
  C      13.066524    -12.484827     13.656713
  O      13.127948    -12.418343     14.903187
  O      12.180265    -13.123340     13.021155
  O      15.941914     -9.377886     10.769900
  O      17.246809    -12.339204     12.496396
  C      16.596781    -13.509928     12.157316
  C      16.509493    -13.839020     10.688652
  O      17.341161    -13.310674      9.924756
  O      15.608617    -14.634987     10.307061
  C      16.129417    -14.339820     13.083862
  H      17.126378    -10.355573     12.854449
  H      15.394786    -11.263464     14.402686
  H      13.071093    -12.436342     11.022417
  H      14.696909    -11.490208      9.474358
  H      16.959041    -11.098817     10.384974
  H      16.861726     -8.828509     11.060987
  H      15.678363    -15.274238     12.801252
  H      16.189843    -14.105529     14.132678
  O      13.091176    -15.386095     11.517808
  H      13.952218    -15.165462     11.131538
  H      12.794232    -14.574686     11.955546
  C      12.785000    -13.909001      5.224001
  C      13.426624    -12.548000      5.482074
  N      14.789384    -12.585497      5.977405
  C      15.195971    -12.980848      7.209347
  N      14.475154    -13.779881      7.973459
  N      16.391043    -12.595931      7.606877
  H      13.453745    -14.682279      4.845952
  H      11.988119    -13.781516      4.493436
  H      12.321877    -14.302858      6.127417
  H      13.466075    -11.994472      4.542155
  H      12.784635    -11.988974      6.175456
  H      15.392861    -11.882686      5.577865
  H      14.874559    -14.108417      8.874214
  H      13.680878    -14.276552      7.616383
  H      16.784092    -12.937223      8.528009
  H      16.795938    -11.754280      7.232270
  C       8.412999    -16.813004     15.233001
  C       9.863376    -17.156827     15.594835
  N      10.575769    -16.070372     16.229961
  C      10.981428    -14.954933     15.554245
  N      10.794318    -14.834187     14.261530
  N      11.531553    -13.951628     16.215864
  H       7.736528    -17.001581     16.066623
  H       8.083307    -17.429449     14.400348
  H       8.332606    -15.769918     14.940726
  H       9.892921    -18.013219     16.271164
  H      10.415678    -17.435969     14.692065
  H      10.521348    -16.000726     17.232933
  H      11.346855    -14.042547     13.733715
  H      10.489685    -15.619156     13.715263
  H      12.159927    -13.238436     15.656652
  H      11.735247    -14.068185     17.193722
  C      13.998001     -9.220000      7.724999
  O      15.188852     -9.905140      8.005327
  C      14.271157     -7.788160      7.259539
  H      13.329681     -9.174595      8.584877
  H      13.499243     -9.783080      6.926418
  H      15.564959     -9.534684      8.831421
  H      14.811361     -7.254026      8.037537
  H      14.884571     -7.790685      6.361229
  H      13.336887     -7.270862      7.053554
  C      14.518001     -6.670000     12.632999
  S      13.915108     -8.367567     12.913740
  H      14.324364     -6.427596     11.588086
  H      15.583951     -6.634021     12.833138
  H      13.975572     -6.001948     13.293504
  H      14.747237     -8.894004     11.994704
  C      20.972000     -6.019000     10.963999
  C      20.063456     -7.044081     11.645582
  C      18.769355     -7.462116     10.890260
  O      18.013210     -8.212669     11.589397
  O      18.564149     -7.103319      9.736698
  H      20.586780     -5.000259     11.007275
  H      21.081427     -6.287879      9.915282
  H      21.956711     -6.028978     11.431262
  H      20.621521     -7.977857     11.762595
  H      19.771154     -6.706641     12.643658
  C      19.312999    -20.521999      7.175001
  C      18.303703    -19.458628      7.512381
  C      17.151703    -19.322569      6.745209
  C      18.491674    -18.576417      8.567155
  C      16.222117    -18.341209      7.018189
  C      17.566462    -17.587723      8.853211
  C      16.417970    -17.456512      8.079574
  O      15.482044    -16.511413      8.298546
  H      19.761228    -20.307815      6.204785
  H      18.838005    -21.500598      7.118254
  H      20.102666    -20.558359      7.921230
  H      16.982697    -19.998932      5.917870
  H      19.379382    -18.657940      9.179078
  H      15.329193    -18.240971      6.419623
  H      17.732789    -16.907488      9.676732
  H      15.690681    -15.962157      9.088927
  C      19.522001    -11.465000      7.842998
  C      19.504583    -10.496880      9.022146
  N      19.554228    -11.229004     10.262258
  C      20.458660    -11.003317     11.238693
  O      21.422059    -10.264373     11.135548
  N      20.242065    -11.774895     12.368370
  H      19.317472    -10.958064      6.899981
  H      18.802127    -12.258904      8.006398
  H      20.506459    -11.925786      7.765441
  H      20.370639     -9.832284      9.006696
  H      18.603605     -9.872422      8.993800
  H      18.836492    -11.925952     10.412240
  H      20.729016    -11.441251     13.185058
  H      19.288476    -12.065287     12.536466
114
Coordinates from ORCA-job 01_xtb_cit_react E -175.328879491210
  C      16.454526    -11.122348     12.454067
  C      15.266917    -11.356892     13.334888
  C      14.143638    -11.878219     12.818180
  C      13.974635    -11.967593     11.382016
  C      14.869800    -11.464798     10.536903
  C      16.111675    -10.755412     10.994351
  C      13.066856    -12.486002     13.656271
  O      13.128632    -12.419872     14.902742
  O      12.180168    -13.123843     13.020712
  O      15.942229     -9.378453     10.770403
  O      17.247667    -12.340505     12.495505
  C      16.597254    -13.511035     12.156320
  C      16.510289    -13.839722     10.687551
  O      17.342256    -13.311788      9.923712
  O      15.609090    -14.635363     10.306006
  C      16.130352    -14.341164     13.082881
  H      17.126715    -10.356835     12.854646
  H      15.395377    -11.265261     14.402457
  H      13.071303    -12.436860     11.021993
  H      14.697267    -11.490909      9.474186
  H      16.959469    -11.098655     10.384421
  H      16.861992     -8.828814     11.061009
  H      15.678893    -15.275330     12.800146
  H      16.191032    -14.106872     14.131661
  O      13.091586    -15.386026     11.517751
  H      13.952382    -15.165084     11.131104
  H      12.794083    -14.574532     11.955015
  C      12.785000    -13.909001      5.224001
  C      13.427007    -12.548074      5.481828
  N      14.789951    -12.585948      5.976705
  C      15.196451    -12.980973      7.208747
  N      14.475953    -13.780367      7.972741
  N      16.391357    -12.595605      7.606501
  H      13.453745    -14.682279      4.845952
  H      11.988075    -13.781377      4.493535
  H      12.322152    -14.302639      6.127669
  H      13.466159    -11.994510      4.541924
  H      12.785190    -11.989048      6.175366
  H      15.392924    -11.882881      5.576783
  H      14.875395    -14.108824      8.873526
  H      13.681076    -14.276295      7.616053
  H      16.784318    -12.937232      8.527537
  H      16.796156    -11.754208      7.231255
  C       8.412999    -16.813004     15.233001
  C       9.863165    -17.157267     15.595084
  N      10.575851    -16.070855     16.229954
  C      10.981457    -14.955618     15.553902
  N      10.794894    -14.835547     14.261093
  N      11.531184    -13.951968     16.215280
  H       7.736528    -17.001581     16.066622
  H       8.083133    -17.429201     14.400226
  H       8.333052    -15.769802     14.940999
  H       9.892555    -18.013527     16.271545
  H      10.415453    -17.436779     14.692444
  H      10.520625    -16.000853     17.232908
  H      11.347293    -14.043969     13.733335
  H      10.490042    -15.620496     13.714895
  H      12.159718    -13.238977     15.655943
  H      11.734713    -14.068426     17.193201
  C      13.998001     -9.220000      7.724999
  O      15.188832     -9.905114      8.005558
  C      14.271153     -7.788074      7.259708
  H      13.329681     -9.174595      8.584877
  H      13.499302     -9.783033      6.926355
  H      15.564806     -9.534419      8.831629
  H      14.811678     -7.254114      8.037598
  H      14.884209     -7.790218      6.361160
  H      13.336640     -7.270936      7.054414
  C      14.518001     -6.670000     12.632999
  S      13.916161     -8.367902     12.914260
  H      14.324364     -6.427596     11.588086
  H      15.583845     -6.633245     12.833216
  H      13.974712     -6.002192     13.293048
  H      14.748247     -8.894309     11.995302
  C      20.972000     -6.019000     10.963999
  C      20.063136     -7.043695     11.645386
  C      18.768738     -7.461200     10.890261
  O      18.013529     -8.213057     11.588915
  O      18.562452     -7.100349      9.737537
  H      20.586780     -5.000259     11.007275
  H      21.081504     -6.287860      9.915281
  H      21.956566     -6.028791     11.431508
  H      20.620780     -7.977792     11.762183
  H      19.770932     -6.706760     12.643639
  C      19.312999    -20.521999      7.175001
  C      18.303402    -19.458907      7.512223
  C      17.151353    -19.323253      6.745004
  C      18.490960    -18.576629      8.567070
  C      16.221416    -18.342335      7.018132
  C      17.565455    -17.588261      8.853152
  C      16.416800    -17.457619      8.079621
  O      15.480166    -16.513194      8.298631
  H      19.761228    -20.307815      6.204785
  H      18.838351    -21.500794      7.118467
  H      20.102696    -20.557948      7.921267
  H      16.982723    -19.999726      5.917775
  H      19.378733    -18.657942      9.178952
  H      15.328415    -18.242320      6.419656
  H      17.731289    -16.907969      9.676742
  H      15.688909    -15.963517      9.088650
  C      19.522001    -11.465000      7.842998
  C      19.504733    -10.496614      9.021922
  N      19.554248    -11.229025     10.261892
  C      20.458584    -11.003774     11.238548
  O      21.422208    -10.265143     11.135723
  N      20.241774    -11.775765     12.367843
  H      19.317472    -10.958064      6.899981
  H      18.801933    -12.258727      8.006487
  H      20.506209    -11.926270      7.765427
  H      20.370886     -9.832157      9.006376
  H      18.603759     -9.872157      8.993254
  H      18.836374    -11.925792     10.411751
  H      20.727790    -11.441962     13.185038
  H      19.288393    -12.067068     12.535558
114
Coordinates from ORCA-job 01_xtb_cit_react E -175.328882392520
  C      16.455143    -11.123851     12.453572
  C      15.267783    -11.358601     13.334517
  C      14.144416    -11.879822     12.817908
  C      13.975045    -11.968584     11.381684
  C      14.870254    -11.465769     10.536661
  C      16.112049    -10.756421     10.994096
  C      13.067549    -12.487533     13.656072
  O      13.129625    -12.421947     14.902533
  O      12.180294    -13.124510     13.020500
  O      15.942508     -9.379318     10.770784
  O      17.248677    -12.341854     12.494394
  C      16.598155    -13.512398     12.155371
  C      16.511213    -13.840682     10.686514
  O      17.343470    -13.313301      9.922631
  O      15.609547    -14.635816     10.304934
  C      16.132018    -14.342838     13.082038
  H      17.127343    -10.358510     12.854520
  H      15.396549    -11.267257     14.402020
  H      13.071450    -12.437528     11.021851
  H      14.697500    -11.491550      9.473921
  H      16.959848    -11.098708     10.383765
  H      16.862457     -8.829603     11.060682
  H      15.680023    -15.276706     12.799355
  H      16.193216    -14.108348     14.130768
  O      13.091861    -15.385851     11.517407
  H      13.952386    -15.164503     11.130490
  H      12.793645    -14.574321     11.954048
  C      12.785000    -13.909001      5.224001
  C      13.427658    -12.548260      5.481547
  N      14.790836    -12.586755      5.975882
  C      15.197204    -12.981327      7.208089
  N      14.477034    -13.781174      7.971924
  N      16.391849    -12.595560      7.606138
  H      13.453745    -14.682279      4.845952
  H      11.988078    -13.781120      4.493622
  H      12.322369    -14.302488      6.127832
  H      13.466609    -11.994715      4.541632
  H      12.786116    -11.989140      6.175234
  H      15.393496    -11.883759      5.575326
  H      14.876397    -14.109487      8.872845
  H      13.681532    -14.276341      7.615595
  H      16.784690    -12.937420      8.527159
  H      16.796703    -11.754536      7.230141
  C       8.412999    -16.813004     15.233001
  C       9.863050    -17.157939     15.595035
  N      10.576251    -16.071801     16.229940
  C      10.981819    -14.956707     15.553631
  N      10.795950    -14.837256     14.260702
  N      11.531112    -13.952693     16.214787
  H       7.736528    -17.001581     16.066623
  H       8.082698    -17.428699     14.400050
  H       8.333786    -15.769555     14.941477
  H       9.892188    -18.014116     16.271595
  H      10.415363    -17.437659     14.692502
  H      10.519926    -16.001577     17.232845
  H      11.348319    -14.045686     13.733167
  H      10.490926    -15.622001     13.714334
  H      12.159905    -13.239818     15.655256
  H      11.734363    -14.069073     17.192799
  C      13.998001     -9.220000      7.724999
  O      15.188649     -9.905292      8.006055
  C      14.271490     -7.788214      7.259528
  H      13.329681     -9.174595      8.584877
  H      13.499413     -9.783104      6.926339
  H      15.564504     -9.534270      8.832154
  H      14.812474     -7.254484      8.037269
  H      14.884284     -7.790488      6.360809
  H      13.336945     -7.270949      7.054732
  C      14.518001     -6.670000     12.632999
  S      13.917498     -8.368191     12.915225
  H      14.324364     -6.427596     11.588086
  H      15.583747     -6.632294     12.833440
  H      13.973629     -6.002351     13.292440
  H      14.749515     -8.894596     11.996170
  C      20.972000     -6.019000     10.963999
  C      20.062860     -7.043536     11.645170
  C      18.768150     -7.460549     10.890184
  O      18.014332     -8.214415     11.588087
  O      18.560397     -7.096885      9.738614
  H      20.586780     -5.000259     11.007275
  H      21.081546     -6.287812      9.915252
  H      21.956447     -6.028698     11.431733
  H      20.620412     -7.977703     11.761773
  H      19.770663     -6.706992     12.643500
  C      19.312999    -20.521999      7.175001
  C      18.302900    -19.459353      7.512192
  C      17.150717    -19.324424      6.745008
  C      18.490144    -18.576918      8.566947
  C      16.220335    -18.344072      7.018354
  C      17.564146    -17.589026      8.853183
  C      16.415278    -17.459240      8.079822
  O      15.477779    -16.515706      8.299062
  H      19.761228    -20.307815      6.204785
  H      18.838793    -21.501034      7.118704
  H      20.102757    -20.557511      7.921246
  H      16.982529    -20.000911      5.917739
  H      19.378007    -18.657810      9.178755
  H      15.327195    -18.244318      6.419999
  H      17.729343    -16.908453      9.676691
  H      15.686605    -15.965458      9.088635
  C      19.522001    -11.465000      7.842998
  C      19.504576    -10.496445      9.021754
  N      19.554328    -11.229095     10.261510
  C      20.458703    -11.004264     11.238256
  O      21.422320    -10.265669     11.135652
  N      20.241979    -11.776828     12.367085
  H      19.317472    -10.958064      6.899981
  H      18.801794    -12.258621      8.006473
  H      20.506069    -11.926475      7.765581
  H      20.370589     -9.831847      9.006062
  H      18.603358     -9.872398      8.992686
  H      18.836316    -11.925702     10.411361
  H      20.727108    -11.442781     13.184695
  H      19.288847    -12.069268     12.534401
114
Coordinates from ORCA-job 01_xtb_cit_react E -175.328885478320
  C      16.455812    -11.125370     12.453001
  C      15.268629    -11.360295     13.334229
  C      14.145203    -11.881424     12.817691
  C      13.975383    -11.969574     11.381405
  C      14.870514    -11.466873     10.536256
  C      16.112338    -10.757622     10.993776
  C      13.068380    -12.489032     13.656011
  O      13.130664    -12.424131     14.902469
  O      12.180523    -13.125042     13.020394
  O      15.942414     -9.380378     10.771283
  O      17.249798    -12.343173     12.493328
  C      16.599554    -13.513914     12.154514
  C      16.512185    -13.841749     10.685606
  O      17.344677    -13.314847      9.921624
  O      15.609923    -14.636229     10.303899
  C      16.134326    -14.344778     13.081271
  H      17.128325    -10.360325     12.854053
  H      15.398019    -11.269383     14.401695
  H      13.071647    -12.438507     11.021876
  H      14.697575    -11.492220      9.473515
  H      16.960179    -11.098800     10.382916
  H      16.862533     -8.830614     11.060521
  H      15.681897    -15.278369     12.798656
  H      16.196398    -14.110153     14.129924
  O      13.092365    -15.385831     11.517222
  H      13.952559    -15.163853     11.129968
  H      12.793354    -14.574149     11.953012
  C      12.785000    -13.909001      5.224001
  C      13.428383    -12.548523      5.481175
  N      14.791748    -12.587798      5.975055
  C      15.198012    -12.982012      7.207439
  N      14.478271    -13.782489      7.970949
  N      16.392343    -12.595576      7.605865
  H      13.453745    -14.682279      4.845952
  H      11.988078    -13.780910      4.493681
  H      12.322453    -14.302405      6.127892
  H      13.467384    -11.995165      4.541156
  H      12.787186    -11.989059      6.174878
  H      15.394391    -11.885110      5.573900
  H      14.877494    -14.110543      8.872118
  H      13.682212    -14.276909      7.614937
  H      16.785054    -12.937538      8.526958
  H      16.797339    -11.754953      7.229238
  C       8.412999    -16.813004     15.233001
  C       9.862902    -17.158651     15.594825
  N      10.576675    -16.072891     16.229882
  C      10.982175    -14.957845     15.553377
  N      10.797044    -14.838872     14.260308
  N      11.530922    -13.953439     16.214278
  H       7.736528    -17.001581     16.066622
  H       8.082262    -17.428167     14.399820
  H       8.334616    -15.769320     14.941993
  H       9.891697    -18.014674     16.271622
  H      10.415188    -17.438554     14.692443
  H      10.518993    -16.002291     17.232720
  H      11.349489    -14.047250     13.733118
  H      10.492099    -15.623435     13.713611
  H      12.160047    -13.240579     15.654576
  H      11.733624    -14.069590     17.192427
  C      13.998001     -9.220000      7.724999
  O      15.188452     -9.905562      8.006651
  C      14.271985     -7.788498      7.258971
  H      13.329681     -9.174595      8.584877
  H      13.499571     -9.783448      6.926430
  H      15.564048     -9.534375      8.832947
  H      14.813374     -7.254924      8.036539
  H      14.884666     -7.791364      6.360190
  H      13.337675     -7.270885      7.054205
  C      14.518001     -6.670000     12.632998
  S      13.918889     -8.368404     12.915947
  H      14.324364     -6.427596     11.588086
  H      15.583582     -6.631012     12.833839
  H      13.972407     -6.002788     13.291979
  H      14.750764     -8.894897     11.996861
  C      20.972000     -6.019000     10.963999
  C      20.062698     -7.043649     11.644988
  C      18.767489     -7.459782     10.890191
  O      18.015172     -8.216022     11.587066
  O      18.558032     -7.092687      9.740041
  H      20.586780     -5.000259     11.007275
  H      21.081506     -6.287737      9.915190
  H      21.956394     -6.028819     11.431821
  H      20.620333     -7.977718     11.761117
  H      19.770645     -6.707315     12.643397
  C      19.312999    -20.521999      7.175001
  C      18.302330    -19.459845      7.512227
  C      17.150078    -19.325659      6.744998
  C      18.489262    -18.577446      8.567024
  C      16.219187    -18.345917      7.018623
  C      17.562656    -17.590108      8.853499
  C      16.413662    -17.461116      8.080219
  O      15.475407    -16.518416      8.299786
  H      19.761228    -20.307815      6.204785
  H      18.839194    -21.501258      7.118844
  H      20.102813    -20.557199      7.921202
  H      16.982199    -20.002177      5.917766
  H      19.377224    -18.657760      9.178673
  H      15.325825    -18.246543      6.420589
  H      17.727123    -16.909238      9.676923
  H      15.684265    -15.967603      9.088896
  C      19.522001    -11.465000      7.842998
  C      19.504813    -10.496323      9.021715
  N      19.554819    -11.228953     10.261344
  C      20.459334    -11.004576     11.238119
  O      21.422792    -10.265796     11.135773
  N      20.242809    -11.777811     12.366478
  H      19.317472    -10.958064      6.899981
  H      18.801418    -12.258290      8.006510
  H      20.505897    -11.926847      7.765585
  H      20.370875     -9.831783      9.005676
  H      18.603467     -9.872453      8.992220
  H      18.836449    -11.925092     10.411295
  H      20.727122    -11.443453     13.184438
  H      19.289927    -12.071369     12.533209
114
Coordinates from ORCA-job 01_xtb_cit_react E -175.328888336850
  C      16.456217    -11.126202     12.452344
  C      15.269331    -11.361369     13.333896
  C      14.145827    -11.882362     12.817418
  C      13.975518    -11.969926     11.381183
  C      14.870499    -11.467540     10.535724
  C      16.112436    -10.758496     10.993341
  C      13.069162    -12.489946     13.655961
  O      13.131709    -12.425788     14.902442
  O      12.180735    -13.125130     13.020308
  O      15.942104     -9.381166     10.771413
  O      17.250730    -12.343714     12.492459
  C      16.601126    -13.514863     12.153901
  C      16.512878    -13.842488     10.685034
  O      17.345492    -13.315996      9.920892
  O      15.610009    -14.636315     10.303257
  C      16.136807    -14.346171     13.080748
  H      17.129116    -10.361416     12.853159
  H      15.399464    -11.271074     14.401299
  H      13.071735    -12.438982     11.022031
  H      14.697488    -11.492385      9.472991
  H      16.960376    -11.098821     10.382166
  H      16.862724     -8.831562     11.059859
  H      15.684368    -15.279726     12.798223
  H      16.199651    -14.111481     14.129353
  O      13.092760    -15.385616     11.517211
  H      13.952658    -15.162973     11.129729
  H      12.792981    -14.573726     11.952059
  C      12.785000    -13.909001      5.224001
  C      13.428903    -12.548752      5.480912
  N      14.792409    -12.588542      5.974459
  C      15.198690    -12.982507      7.206991
  N      14.479421    -13.783723      7.970117
  N      16.392670    -12.595560      7.605707
  H      13.453745    -14.682279      4.845952
  H      11.988079    -13.780838      4.493709
  H      12.322370    -14.302398      6.127809
  H      13.467999    -11.995573      4.540789
  H      12.788126    -11.988914      6.174684
  H      15.395393    -11.886364      5.572883
  H      14.878406    -14.111520      8.871619
  H      13.682895    -14.277550      7.614265
  H      16.785329    -12.937323      8.526911
  H      16.797882    -11.755277      7.228593
  C       8.412999    -16.813004     15.233001
  C       9.862889    -17.159184     15.594518
  N      10.577232    -16.073825     16.229770
  C      10.982786    -14.958789     15.553168
  N      10.798251    -14.840023     14.259952
  N      11.531180    -13.954124     16.213893
  H       7.736528    -17.001581     16.066622
  H       8.081949    -17.427771     14.399643
  H       8.335158    -15.769139     14.942345
  H       9.891373    -18.015114     16.271495
  H      10.415122    -17.439153     14.692204
  H      10.518174    -16.002587     17.232485
  H      11.350752    -14.048265     13.733179
  H      10.493546    -15.624418     13.712884
  H      12.160530    -13.241157     15.654109
  H      11.733165    -14.069870     17.192237
  C      13.998001     -9.220000      7.724999
  O      15.188179     -9.905924      8.007159
  C      14.272599     -7.788918      7.258350
  H      13.329681     -9.174595      8.584877
  H      13.499601     -9.783761      6.926596
  H      15.563453     -9.534665      8.833670
  H      14.814382     -7.255459      8.035726
  H      14.885199     -7.792778      6.359515
  H      13.338745     -7.270644      7.053314
  C      14.518001     -6.670000     12.632999
  S      13.919891     -8.368449     12.916740
  H      14.324364     -6.427596     11.588086
  H      15.583555     -6.630090     12.834178
  H      13.971853     -6.002937     13.291790
  H      14.751640     -8.894985     11.997415
  C      20.972000     -6.019000     10.963999
  C      20.062734     -7.044065     11.644810
  C      18.767050     -7.459311     10.890219
  O      18.016353     -8.218383     11.585720
  O      18.555735     -7.088555      9.741576
  H      20.586780     -5.000259     11.007275
  H      21.081557     -6.287626      9.915119
  H      21.956405     -6.029110     11.431856
  H      20.620601     -7.977985     11.760524
  H      19.770921     -6.707686     12.643265
  C      19.312999    -20.521999      7.175001
  C      18.301839    -19.460257      7.512349
  C      17.149456    -19.326816      6.745213
  C      18.488589    -18.577852      8.567081
  C      16.218063    -18.347604      7.019015
  C      17.561328    -17.591128      8.853835
  C      16.412236    -17.462840      8.080645
  O      15.473415    -16.520841      8.300699
  H      19.761228    -20.307815      6.204785
  H      18.839485    -21.501397      7.118876
  H      20.102825    -20.557028      7.921155
  H      16.981851    -20.003233      5.917789
  H      19.376598    -18.657620      9.178695
  H      15.324542    -18.248547      6.421158
  H      17.725038    -16.909889      9.677088
  H      15.682202    -15.969546      9.089457
  C      19.522001    -11.465000      7.842998
  C      19.505054    -10.496316      9.021764
  N      19.555379    -11.228669     10.261356
  C      20.460143    -11.004511     11.237980
  O      21.423321    -10.265399     11.135595
  N      20.243932    -11.778062     12.366165
  H      19.317472    -10.958064      6.899981
  H      18.801070    -12.257938      8.006551
  H      20.505821    -11.926969      7.765581
  H      20.371115     -9.831781      9.005372
  H      18.603575     -9.872659      8.991913
  H      18.836460    -11.924195     10.411603
  H      20.727856    -11.443489     13.184231
  H      19.291234    -12.072591     12.532240
114
Coordinates from ORCA-job 01_xtb_cit_react E -175.328890666750
  C      16.456454    -11.126537     12.451735
  C      15.269745    -11.362110     13.333603
  C      14.146085    -11.882757     12.817126
  C      13.975443    -11.969978     11.380950
  C      14.870272    -11.467927     10.535148
  C      16.112358    -10.759007     10.992852
  C      13.069605    -12.490404     13.655783
  O      13.132564    -12.426890     14.902294
  O      12.180734    -13.125005     13.020161
  O      15.941494     -9.381638     10.771381
  O      17.251384    -12.343762     12.491981
  C      16.602445    -13.515296     12.153558
  C      16.513217    -13.842826     10.684747
  O      17.345856    -13.316503      9.920459
  O      15.609818    -14.636110     10.303025
  C      16.138810    -14.347012     13.080407
  H      17.129498    -10.361676     12.852084
  H      15.400626    -11.272510     14.401015
  H      13.071660    -12.439233     11.022140
  H      14.697237    -11.492482      9.472445
  H      16.960354    -11.098765     10.381384
  H      16.862578     -8.832182     11.059393
  H      15.686806    -15.280768     12.797855
  H      16.202138    -14.112545     14.129032
  O      13.093118    -15.385625     11.517503
  H      13.952783    -15.162316     11.129818
  H      12.792688    -14.573448     11.951457
  C      12.785000    -13.909001      5.224001
  C      13.429057    -12.548867      5.480714
  N      14.792579    -12.588901      5.974165
  C      15.198958    -12.982952      7.206733
  N      14.480166    -13.784922      7.969388
  N      16.392654    -12.595407      7.605696
  H      13.453745    -14.682279      4.845952
  H      11.988037    -13.780972      4.493698
  H      12.322194    -14.302386      6.127712
  H      13.468329    -11.995888      4.540472
  H      12.788651    -11.988596      6.174486
  H      15.396056    -11.887125      5.572633
  H      14.878889    -14.112435      8.871199
  H      13.683476    -14.278433      7.613525
  H      16.785353    -12.936836      8.527030
  H      16.798100    -11.755331      7.228451
  C       8.412999    -16.813004     15.233001
  C       9.862839    -17.159639     15.594261
  N      10.577714    -16.074623     16.229540
  C      10.983313    -14.959548     15.552931
  N      10.799000    -14.840716     14.259630
  N      11.531529    -13.954773     16.213553
  H       7.736528    -17.001581     16.066622
  H       8.081822    -17.427517     14.399504
  H       8.335387    -15.769085     14.942529
  H       9.891050    -18.015552     16.271335
  H      10.414906    -17.439714     14.691932
  H      10.517564    -16.002623     17.232113
  H      11.351506    -14.048772     13.733258
  H      10.494804    -15.625158     13.712317
  H      12.160978    -13.241697     15.653849
  H      11.732847    -14.070057     17.192066
  C      13.998001     -9.220000      7.724999
  O      15.188024     -9.906197      8.007360
  C      14.273093     -7.789210      7.257850
  H      13.329681     -9.174595      8.584877
  H      13.499526     -9.784076      6.926789
  H      15.562841     -9.535254      8.834233
  H      14.814970     -7.255737      8.035135
  H      14.885794     -7.793960      6.359092
  H      13.339784     -7.270307      7.052139
  C      14.518001     -6.670000     12.632999
  S      13.920390     -8.368435     12.916855
  H      14.324364     -6.427596     11.588086
  H      15.583504     -6.629445     12.834452
  H      13.971822     -6.003141     13.291964
  H      14.751996     -8.895036     11.997395
  C      20.972000     -6.019000     10.963999
  C      20.062838     -7.044555     11.644567
  C      18.766641     -7.458566     10.890171
  O      18.017067     -8.219967     11.584421
  O      18.553831     -7.084828      9.742796
  H      20.586780     -5.000259     11.007275
  H      21.081712     -6.287454      9.915074
  H      21.956409     -6.029448     11.431877
  H      20.620660     -7.978484     11.759554
  H      19.771527     -6.708277     12.643248
  C      19.312999    -20.521999      7.175001
  C      18.301598    -19.460458      7.512430
  C      17.149162    -19.327406      6.745339
  C      18.488176    -18.578191      8.567277
  C      16.217342    -18.348568      7.019238
  C      17.560429    -17.591951      8.854202
  C      16.411303    -17.463981      8.081037
  O      15.472288    -16.522294      8.301456
  H      19.761228    -20.307815      6.204785
  H      18.839572    -21.501427      7.118772
  H      20.102785    -20.557036      7.921159
  H      16.981603    -20.003825      5.917903
  H      19.376270    -18.657482      9.178765
  H      15.323700    -18.249869      6.421583
  H      17.723532    -16.910506      9.677382
  H      15.680892    -15.970724      9.090021
  C      19.522001    -11.465000      7.842998
  C      19.505678    -10.496337      9.021848
  N      19.556023    -11.228265     10.261567
  C      20.461051    -11.004148     11.237955
  O      21.424062    -10.264811     11.135362
  N      20.245120    -11.777678     12.366209
  H      19.317472    -10.958064      6.899981
  H      18.800601    -12.257452      8.006662
  H      20.505675    -11.927298      7.765368
  H      20.371974     -9.832063      9.005109
  H      18.604322     -9.872442      8.991847
  H      18.836404    -11.922967     10.412189
  H      20.728929    -11.442907     13.184236
  H      19.292524    -12.072782     12.531659
114
Coordinates from ORCA-job 01_xtb_cit_react E -175.328892521040
  C      16.456381    -11.126115     12.451185
  C      15.269893    -11.362105     13.333247
  C      14.146063    -11.882384     12.816831
  C      13.975211    -11.969494     11.380731
  C      14.869941    -11.467766     10.534669
  C      16.112124    -10.758872     10.992305
  C      13.069809    -12.490339     13.655537
  O      13.133335    -12.427408     14.902097
  O      12.180619    -13.124641     13.019990
  O      15.940880     -9.381528     10.770912
  O      17.251641    -12.343094     12.491776
  C      16.603159    -13.514910     12.153413
  C      16.513174    -13.842554     10.684658
  O      17.345778    -13.316336      9.920259
  O      15.609437    -14.635533     10.303173
  C      16.139988    -14.346922     13.080241
  H      17.129251    -10.360909     12.851060
  H      15.401336    -11.273193     14.400654
  H      13.071386    -12.438816     11.022203
  H      14.696908    -11.492265      9.471989
  H      16.960119    -11.098481     10.380739
  H      16.862575     -8.832179     11.058564
  H      15.688685    -15.281057     12.797653
  H      16.203433    -14.112857     14.128934
  O      13.093199    -15.385443     11.517879
  H      13.952747    -15.161679     11.130149
  H      12.792255    -14.573025     11.951107
  C      12.785000    -13.909001      5.224001
  C      13.428901    -12.548833      5.480605
  N      14.792392    -12.588691      5.974074
  C      15.198953    -12.982982      7.206569
  N      14.480548    -13.785628      7.968830
  N      16.392427    -12.595172      7.605680
  H      13.453745    -14.682279      4.845952
  H      11.987965    -13.781212      4.493709
  H      12.322081    -14.302324      6.127673
  H      13.468191    -11.995955      4.540289
  H      12.788760    -11.988301      6.174422
  H      15.396318    -11.887093      5.572840
  H      14.878998    -14.112945      8.870883
  H      13.683889    -14.279087      7.612770
  H      16.785242    -12.936090      8.527133
  H      16.798025    -11.755139      7.228448
  C       8.412999    -16.813004     15.233001
  C       9.862822    -17.159958     15.594091
  N      10.578195    -16.075223     16.229286
  C      10.983949    -14.960128     15.552735
  N      10.799638    -14.841093     14.259393
  N      11.532294    -13.955461     16.213416
  H       7.736528    -17.001581     16.066622
  H       8.081798    -17.427479     14.399470
  H       8.335275    -15.769119     14.942476
  H       9.890852    -18.015958     16.271045
  H      10.414664    -17.440124     14.691617
  H      10.517284    -16.002528     17.231737
  H      11.352071    -14.048902     13.733368
  H      10.496028    -15.625678     13.711977
  H      12.161713    -13.242299     15.653905
  H      11.733191    -14.070426     17.192050
  C      13.998001     -9.220000      7.724999
  O      15.187944     -9.906315      8.007357
  C      14.273453     -7.789451      7.257593
  H      13.329681     -9.174595      8.584877
  H      13.499302     -9.784175      6.926965
  H      15.562281     -9.535744      8.834564
  H      14.815271     -7.255885      8.034855
  H      14.886335     -7.794964      6.358941
  H      13.340612     -7.269994      7.051207
  C      14.518001     -6.670000     12.632999
  S      13.920289     -8.368339     12.916912
  H      14.324364     -6.427596     11.588086
  H      15.583580     -6.629433     12.834470
  H      13.972433     -6.002936     13.292233
  H      14.751776     -8.894893     11.997177
  C      20.972000     -6.019000     10.963999
  C      20.062898     -7.044959     11.644190
  C      18.766292     -7.457916     10.890025
  O      18.017538     -8.221237     11.583147
  O      18.552372     -7.081913      9.743594
  H      20.586780     -5.000259     11.007275
  H      21.082149     -6.287238      9.915063
  H      21.956325     -6.029659     11.432114
  H      20.620521     -7.979109     11.758501
  H      19.772184     -6.708967     12.643194
  C      19.312999    -20.521999      7.175001
  C      18.301581    -19.460486      7.512494
  C      17.149051    -19.327611      6.745564
  C      18.488094    -18.578219      8.567347
  C      16.216951    -18.348958      7.019406
  C      17.560063    -17.592312      8.854315
  C      16.410880    -17.464453      8.081218
  O      15.471892    -16.522824      8.301892
  H      19.761228    -20.307815      6.204785
  H      18.839532    -21.501377      7.118650
  H      20.102713    -20.557094      7.921199
  H      16.981543    -20.003964      5.917983
  H      19.376210    -18.657304      9.178870
  H      15.323331    -18.250460      6.421667
  H      17.722734    -16.910710      9.677419
  H      15.680268    -15.971180      9.090451
  C      19.522001    -11.465000      7.842998
  C      19.506193    -10.496359      9.021856
  N      19.556372    -11.227945     10.261748
  C      20.461636    -11.003725     11.237881
  O      21.424687    -10.264434     11.134831
  N      20.245746    -11.776708     12.366555
  H      19.317472    -10.958064      6.899981
  H      18.800275    -12.257070      8.006759
  H      20.505537    -11.927524      7.765198
  H      20.372699     -9.832346      9.004979
  H      18.605042     -9.872161      8.991903
  H      18.836011    -11.921825     10.412825
  H      20.729626    -11.441812     13.184462
  H      19.293164    -12.072068     12.531528
114
Coordinates from ORCA-job 01_xtb_cit_react E -175.328894070590
  C      16.456335    -11.125677     12.450634
  C      15.269971    -11.362093     13.332862
  C      14.145930    -11.882017     12.816575
  C      13.974949    -11.969147     11.380515
  C      14.869640    -11.467623     10.534303
  C      16.111877    -10.758600     10.991733
  C      13.069876    -12.490356     13.655264
  O      13.134068    -12.427957     14.901846
  O      12.180433    -13.124458     13.019845
  O      15.940302     -9.381283     10.770363
  O      17.251782    -12.342485     12.491641
  C      16.603471    -13.514420     12.153302
  C      16.513057    -13.842130     10.684534
  O      17.345619    -13.315921      9.920071
  O      15.609081    -14.634923     10.303386
  C      16.140664    -14.346649     13.080089
  H      17.128771    -10.359940     12.850198
  H      15.401874    -11.273756     14.400293
  H      13.071020    -12.438420     11.022186
  H      14.696553    -11.492332      9.471644
  H      16.959755    -11.098219     10.379978
  H      16.862536     -8.831949     11.057937
  H      15.690039    -15.281174     12.797463
  H      16.204021    -14.113114     14.128909
  O      13.093300    -15.385458     11.518374
  H      13.952773    -15.161358     11.130592
  H      12.791867    -14.572807     11.950924
  C      12.785000    -13.909001      5.224001
  C      13.428647    -12.548719      5.480457
  N      14.792068    -12.588310      5.974012
  C      15.198790    -12.983034      7.206333
  N      14.480722    -13.786304      7.968201
  N      16.392103    -12.594936      7.605637
  H      13.453745    -14.682279      4.845952
  H      11.987878    -13.781461      4.493723
  H      12.322068    -14.302191      6.127746
  H      13.467917    -11.995942      4.540073
  H      12.788634    -11.987987      6.174242
  H      15.396182    -11.886565      5.573320
  H      14.878917    -14.113413      8.870405
  H      13.684325    -14.279916      7.611852
  H      16.785042    -12.935372      8.527222
  H      16.797773    -11.754845      7.228577
  C       8.412999    -16.813004     15.233001
  C       9.862757    -17.160367     15.593972
  N      10.578653    -16.075879     16.228966
  C      10.984530    -14.960779     15.552491
  N      10.800080    -14.841520     14.259174
  N      11.533046    -13.956289     16.213334
  H       7.736528    -17.001581     16.066622
  H       8.081738    -17.427416     14.399459
  H       8.335144    -15.769195     14.942424
  H       9.890648    -18.016518     16.270756
  H      10.414280    -17.440734     14.691320
  H      10.517309    -16.002782     17.231344
  H      11.352423    -14.049056     13.733443
  H      10.497205    -15.626387     13.711769
  H      12.162437    -13.243156     15.654086
  H      11.733796    -14.071139     17.192001
  C      13.998001     -9.220000      7.724999
  O      15.188005     -9.906280      8.007205
  C      14.273659     -7.789517      7.257527
  H      13.329681     -9.174595      8.584877
  H      13.499051     -9.784181      6.927079
  H      15.561815     -9.536291      8.834865
  H      14.815183     -7.255812      8.034897
  H      14.886899     -7.795388      6.359111
  H      13.341133     -7.269796      7.050458
  C      14.518001     -6.670000     12.632999
  S      13.920137     -8.368356     12.916573
  H      14.324364     -6.427596     11.588086
  H      15.583583     -6.629465     12.834457
  H      13.972914     -6.002866     13.292474
  H      14.751524     -8.894775     11.996642
  C      20.972000     -6.019000     10.963999
  C      20.062824     -7.045188     11.643677
  C      18.765776     -7.456905     10.889739
  O      18.017563     -8.221664     11.582029
  O      18.551030     -7.079147      9.744073
  H      20.586780     -5.000259     11.007275
  H      21.082723     -6.286963      9.915085
  H      21.956141     -6.029705     11.432504
  H      20.619977     -7.979738     11.757028
  H      19.772844     -6.709900     12.643186
  C      19.312999    -20.521999      7.175001
  C      18.301653    -19.460453      7.512494
  C      17.149098    -19.327533      6.745639
  C      18.488035    -18.578214      8.567469
  C      16.216776    -18.349009      7.019419
  C      17.559874    -17.592490      8.854366
  C      16.410636    -17.464594      8.081313
  O      15.471769    -16.522865      8.302045
  H      19.761228    -20.307815      6.204785
  H      18.839466    -21.501328      7.118561
  H      20.102651    -20.557120      7.921261
  H      16.981578    -20.003942      5.918117
  H      19.376202    -18.657180      9.178953
  H      15.323199    -18.250773      6.421603
  H      17.722253    -16.910864      9.677495
  H      15.679934    -15.971275      9.090671
  C      19.522001    -11.465000      7.842998
  C      19.506840    -10.496311      9.021786
  N      19.556638    -11.227738     10.261860
  C      20.462074    -11.003395     11.237772
  O      21.425376    -10.264421     11.134223
  N      20.246127    -11.775745     12.366853
  H      19.317472    -10.958064      6.899981
  H      18.799929    -12.256690      8.006887
  H      20.505302    -11.927986      7.764973
  H      20.373706     -9.832731      9.004889
  H      18.606056     -9.871538      8.992105
  H      18.835542    -11.920751     10.413388
  H      20.729956    -11.440655     13.184694
  H      19.293514    -12.071145     12.531480
114
Coordinates from ORCA-job 01_xtb_cit_react E -175.328895436170
  C      16.456188    -11.125164     12.450070
  C      15.269943    -11.361772     13.332384
  C      14.145753    -11.881555     12.816345
  C      13.974659    -11.968848     11.380296
  C      14.869361    -11.467467     10.534028
  C      16.111580    -10.758218     10.991114
  C      13.069920    -12.490347     13.655073
  O      13.134693    -12.428443     14.901677
  O      12.180296    -13.124357     13.019770
  O      15.939869     -9.380937     10.769602
  O      17.251752    -12.341859     12.491451
  C      16.603413    -13.513835     12.153180
  C      16.512916    -13.841642     10.684358
  O      17.345458    -13.315500      9.919869
  O      15.608820    -14.634387     10.303567
  C      16.140914    -14.346163     13.079993
  H      17.128141    -10.358948     12.849543
  H      15.402118    -11.273769     14.399810
  H      13.070601    -12.437990     11.022087
  H      14.696197    -11.492561      9.471377
  H      16.959281    -11.097995     10.379204
  H      16.862702     -8.831553     11.057109
  H      15.690759    -15.280995     12.797438
  H      16.204217    -14.113103     14.128911
  O      13.093377    -15.385425     11.518839
  H      13.952819    -15.161173     11.131057
  H      12.791473    -14.572595     11.950736
  C      12.785000    -13.909001      5.224001
  C      13.428458    -12.548582      5.480277
  N      14.791844    -12.587843      5.973879
  C      15.198707    -12.983026      7.205976
  N      14.480877    -13.786856      7.967518
  N      16.391893    -12.594866      7.605494
  H      13.453745    -14.682279      4.845952
  H      11.987811    -13.781611      4.493761
  H      12.322173    -14.302015      6.127887
  H      13.467609    -11.995876      4.539843
  H      12.788442    -11.987794      6.174011
  H      15.395843    -11.885645      5.573732
  H      14.878832    -14.113831      8.869815
  H      13.684820    -14.280736      7.610803
  H      16.784892    -12.934800      8.527237
  H      16.797496    -11.754620      7.228584
  C       8.412999    -16.813004     15.233001
  C       9.862686    -17.160771     15.593828
  N      10.579075    -16.076541     16.228701
  C      10.985090    -14.961420     15.552323
  N      10.800604    -14.842018     14.259043
  N      11.533786    -13.957150     16.213436
  H       7.736528    -17.001581     16.066622
  H       8.081583    -17.427389     14.399488
  H       8.335065    -15.769254     14.942335
  H       9.890444    -18.017089     16.270338
  H      10.413903    -17.441307     14.690969
  H      10.517478    -16.003364     17.231068
  H      11.352886    -14.049251     13.733517
  H      10.498475    -15.627165     13.711687
  H      12.163182    -13.244096     15.654439
  H      11.734633    -14.072131     17.192072
  C      13.998001     -9.220000      7.724999
  O      15.188116     -9.906148      8.007044
  C      14.273772     -7.789531      7.257623
  H      13.329681     -9.174595      8.584877
  H      13.498776     -9.784013      6.927122
  H      15.561445     -9.536682      8.835148
  H      14.814948     -7.255717      8.035175
  H      14.887429     -7.795523      6.359470
  H      13.341372     -7.269749      7.050106
  C      14.518001     -6.670000     12.632999
  S      13.919931     -8.368420     12.916292
  H      14.324364     -6.427596     11.588086
  H      15.583608     -6.629630     12.834356
  H      13.973239     -6.002720     13.292559
  H      14.751230     -8.894647     11.996103
  C      20.972000     -6.019000     10.963999
  C      20.062624     -7.045331     11.643016
  C      18.765154     -7.456032     10.889363
  O      18.017549     -8.222149     11.580931
  O      18.549606     -7.076608      9.744419
  H      20.586780     -5.000259     11.007275
  H      21.083493     -6.286643      9.915121
  H      21.955841     -6.029605     11.433124
  H      20.619362     -7.980318     11.755393
  H      19.773331     -6.710962     12.643058
  C      19.312999    -20.521999      7.175001
  C      18.301671    -19.460489      7.512491
  C      17.149052    -19.327585      6.745753
  C      18.487939    -18.578124      8.567454
  C      16.216555    -18.349181      7.019453
  C      17.559693    -17.592534      8.854250
  C      16.410357    -17.464706      8.081285
  O      15.471520    -16.522941      8.302022
  H      19.761228    -20.307815      6.204785
  H      18.839487    -21.501331      7.118574
  H      20.102625    -20.557027      7.921307
  H      16.981633    -20.004024      5.918215
  H      19.376123    -18.657068      9.178975
  H      15.323063    -18.251172      6.421431
  H      17.721866    -16.910869      9.677385
  H      15.679566    -15.971478      9.090758
  C      19.522001    -11.465000      7.842998
  C      19.507272    -10.496251      9.021656
  N      19.556701    -11.227736     10.261846
  C      20.462239    -11.003314     11.237644
  O      21.425932    -10.264855     11.133607
  N      20.245963    -11.774873     12.367216
  H      19.317472    -10.958064      6.899981
  H      18.799748    -12.256476      8.006977
  H      20.505091    -11.928350      7.764869
  H      20.374438     -9.833064      9.004908
  H      18.606834     -9.870992      8.992345
  H      18.834921    -11.919944     10.413844
  H      20.729541    -11.439505     13.185089
  H      19.293295    -12.070223     12.531608
114
Coordinates from ORCA-job 01_xtb_cit_react E -175.328896733190
  C      16.456148    -11.124911     12.449420
  C      15.269953    -11.361535     13.331865
  C      14.145648    -11.881414     12.816176
  C      13.974389    -11.968902     11.380138
  C      14.869101    -11.467597     10.533821
  C      16.111290    -10.758043     10.990460
  C      13.070050    -12.490580     13.655020
  O      13.135260    -12.429142     14.901608
  O      12.180295    -13.124525     13.019816
  O      15.939560     -9.380776     10.768805
  O      17.251728    -12.341547     12.491101
  C      16.603318    -13.513563     12.153014
  C      16.512925    -13.841412     10.684120
  O      17.345460    -13.315321      9.919612
  O      15.608768    -14.634158     10.303620
  C      16.141175    -14.345893     13.079936
  H      17.127735    -10.358373     12.848964
  H      15.402295    -11.273576     14.399272
  H      13.070233    -12.437945     11.021996
  H      14.695826    -11.493217      9.471175
  H      16.958731    -11.098017     10.378282
  H      16.862969     -8.831352     11.056342
  H      15.691224    -15.280907     12.797572
  H      16.204494    -14.113098     14.128936
  O      13.093712    -15.385638     11.519382
  H      13.953120    -15.161324     11.131547
  H      12.791328    -14.572634     11.950573
  C      12.785000    -13.909001      5.224001
  C      13.428464    -12.548500      5.480031
  N      14.791835    -12.587567      5.973667
  C      15.198757    -12.983227      7.205535
  N      14.481106    -13.787579      7.966747
  N      16.391834    -12.594961      7.605337
  H      13.453745    -14.682279      4.845952
  H      11.987789    -13.781629      4.493784
  H      12.322308    -14.301829      6.128048
  H      13.467560    -11.995926      4.539521
  H      12.788342    -11.987666      6.173613
  H      15.395392    -11.884669      5.574103
  H      14.878849    -14.114437      8.869088
  H      13.685514    -14.281856      7.609631
  H      16.784789    -12.934507      8.527278
  H      16.797232    -11.754491      7.228631
  C       8.412999    -16.813004     15.233001
  C       9.862629    -17.161291     15.593596
  N      10.579549    -16.077357     16.228415
  C      10.985674    -14.962211     15.552144
  N      10.801240    -14.842696     14.258926
  N      11.534397    -13.958113     16.213592
  H       7.736528    -17.001581     16.066622
  H       8.081284    -17.427193     14.399474
  H       8.335231    -15.769258     14.942415
  H       9.890260    -18.017774     16.269926
  H      10.413503    -17.442036     14.690570
  H      10.517913    -16.004428     17.230819
  H      11.353517    -14.049621     13.733544
  H      10.499904    -15.628126     13.711585
  H      12.163873    -13.245193     15.654826
  H      11.735411    -14.073358     17.192161
  C      13.998001     -9.220000      7.724999
  O      15.188290     -9.905968      8.006884
  C      14.273753     -7.789433      7.257803
  H      13.329681     -9.174595      8.584877
  H      13.498551     -9.783785      6.927094
  H      15.561152     -9.537095      8.835522
  H      14.814488     -7.255534      8.035620
  H      14.887889     -7.795214      6.359971
  H      13.341281     -7.269877      7.050001
  C      14.518001     -6.670000     12.632999
  S      13.920043     -8.368634     12.915873
  H      14.324364     -6.427596     11.588086
  H      15.583566     -6.629544     12.834355
  H      13.973027     -6.002869     13.292511
  H      14.751286     -8.894574     11.995439
  C      20.972000     -6.019000     10.963999
  C      20.062349     -7.045444     11.642271
  C      18.764450     -7.455114     10.888851
  O      18.017514     -8.222541     11.579814
  O      18.548065     -7.073956      9.744686
  H      20.586780     -5.000259     11.007275
  H      21.084282     -6.286295      9.915157
  H      21.955492     -6.029460     11.433826
  H      20.618736     -7.980816     11.753560
  H      19.773658     -6.712131     12.642847
  C      19.312999    -20.521999      7.175001
  C      18.301565    -19.460620      7.512463
  C      17.148905    -19.327793      6.745767
  C      18.487662    -18.578119      8.567428
  C      16.216238    -18.349545      7.019456
  C      17.559325    -17.592622      8.854138
  C      16.409889    -17.464971      8.081252
  O      15.470964    -16.523251      8.301955
  H      19.761228    -20.307815      6.204785
  H      18.839627    -21.501412      7.118676
  H      20.102648    -20.556823      7.921323
  H      16.981589    -20.004355      5.918345
  H      19.375885    -18.656992      9.178916
  H      15.322755    -18.251872      6.421363
  H      17.721361    -16.910937      9.677298
  H      15.679000    -15.971979      9.090806
  C      19.522001    -11.465000      7.842998
  C      19.507657    -10.496164      9.021535
  N      19.556795    -11.227841     10.261767
  C      20.462351    -11.003345     11.237532
  O      21.426455    -10.265449     11.133107
  N      20.245752    -11.774293     12.367393
  H      19.317472    -10.958064      6.899981
  H      18.799619    -12.256359      8.007070
  H      20.504901    -11.928730      7.764799
  H      20.375150     -9.833402      9.004967
  H      18.607555     -9.870424      8.992686
  H      18.834388    -11.919271     10.414255
  H      20.728909    -11.438546     13.185354
  H      19.293004    -12.069531     12.531634
