114
Cit-variant reactant (chorismate); charge=-1 mult=1; atom order=LAW (see cit_react_order.json)
C     16.425000   -11.649000    12.868000
C     15.350000   -12.246000    13.708000
C     14.004000   -12.532000    13.152000
C     13.732000   -12.193000    11.726000
C     14.748000   -11.405000    10.969000
C     16.005000   -10.947000    11.603000
C     12.958000   -13.155000    14.010000
O     12.822000   -12.795000    15.208000
O     12.212000   -14.050000    13.533000
O     15.871000    -9.593000    11.880000
O     17.283000   -12.685000    12.524000
C     16.799000   -13.945000    12.241000
C     16.453000   -14.296000    10.833000
O     17.307000   -14.128000     9.925000
O     15.314000   -14.757000    10.553000
C     16.920000   -14.948000    13.163000
H     16.872698   -10.852318    13.480262
H     15.557888   -12.479883    14.762553
H     12.799665   -12.517741    11.240927
H     14.558407   -11.158297     9.913921
H     16.796921   -11.184280    10.877356
H     15.857492    -9.456506    12.860452
H     16.533717   -15.952748    12.936578
H     17.403596   -14.749906    14.130933
O     12.533000   -15.028000    10.679000
H     13.487504   -14.934986    10.635754
H     12.431429   -14.718542    11.582061
C     12.785000   -13.909000     5.224000
C     13.508000   -12.573000     5.500000
N     14.905000   -12.753000     5.870000
C     15.337000   -13.069000     7.090000
N     14.481000   -13.223000     8.093000
N     16.636000   -13.230000     7.304000
H     13.453744   -14.682280     4.845952
H     11.994786   -13.733306     4.479223
H     12.373967   -14.265942     6.179848
H     13.461963   -11.954323     4.591639
H     13.000273   -12.090884     6.348397
H     15.612768   -12.626386     5.132482
H     14.826540   -13.467364     9.032036
H     13.471332   -13.098117     7.932141
H     16.976547   -13.474337     8.244865
H     17.304239   -13.110693     6.529324
C      8.413000   -16.813000    15.233000
C      9.601000   -17.762000    15.217000
N     10.606000   -17.438000    16.228000
C     11.541000   -16.503000    16.080000
N     11.591000   -15.785000    14.965000
N     12.422000   -16.281000    17.048000
H      7.736530   -17.001583    16.066622
H      7.854751   -16.931669    14.292641
H      8.804552   -15.791340    15.346573
H      9.236006   -18.783309    15.400595
H     10.083086   -17.668291    14.232717
H     10.589216   -17.967380    17.111389
H     12.314850   -15.061229    14.850554
H     10.905956   -15.951519    14.214076
H     13.144626   -15.556502    16.930470
H     12.382895   -16.833260    17.916550
C     13.998000    -9.220000     7.725000
O     15.348000    -9.434000     8.170000
C     13.895000    -7.944000     6.899000
H     13.329680    -9.174594     8.584876
H     13.699963   -10.062338     7.083407
H     15.372531    -9.437889     9.159688
H     13.824970    -7.076446     7.571640
H     14.788064    -7.844864     6.264485
H     12.997598    -7.989392     6.264485
C     14.518000    -6.670000    12.633000
S     13.310000    -7.773000    13.364000
H     14.324365    -6.427597    11.588086
H     15.506658    -7.147654    12.699340
H     14.464406    -5.724801    13.193112
H     13.391272    -7.698793    14.729572
C     20.972000    -6.019000    10.964000
C     20.412000    -6.977000    12.014000
C     18.919000    -7.216000    11.861000
O     18.113000    -6.312000    12.206000
O     18.552000    -8.320000    11.413000
H     20.586780    -5.000259    11.007275
H     20.736423    -6.428884     9.970774
H     22.050472    -5.943859    11.167105
H     20.932938    -7.941482    11.922358
H     20.572981    -6.516486    12.999906
C     19.313000   -20.522000     7.175000
C     18.073000   -19.686000     7.409000
C     16.843000   -20.073000     6.887000
C     18.140000   -18.493000     8.106000
C     15.709000   -19.309000     7.078000
C     17.001000   -17.711000     8.303000
C     15.790000   -18.126000     7.781000
O     14.652000   -17.364000     7.964000
H     19.761228   -20.307815     6.204785
H     19.039332   -21.586652     7.215272
H     20.047359   -20.277044     7.956481
H     16.772435   -21.006965     6.310173
H     19.105479   -18.155661     8.511033
H     14.743581   -19.643348     6.670352
H     17.066374   -16.770598     8.869895
H     14.701702   -16.513154     8.467677
C     19.522000   -11.465000     7.843000
C     18.791000   -10.970000     9.043000
N     19.015000   -11.689000    10.262000
C     19.955000   -11.229000    11.242000
O     20.603000   -10.194000    11.075000
N     20.123000   -12.001000    12.439000
H     19.317472   -10.958064     6.899981
H     19.266868   -12.526991     7.712297
H     20.584146   -11.268853     8.051258
H     19.089760    -9.924653     9.210308
H     17.723676   -11.105075     8.813709
H     18.488465   -12.556506    10.438337
H     20.791401   -11.694205    13.160122
H     19.575249   -12.862211    12.577510
